System 
          1
 160.844879    0.000000    0.000000 
   0.000000   21.689760    0.000000 
   0.000000    0.000000   21.689760 
  Cu  C
  432  521
Cartesian  configuration=        1
   0.000000    0.000000    0.000000 
   0.000000    1.807473    1.807473 
   1.899002    0.054609    1.811134 
   1.898022    1.791899   21.629434 
   0.000000    0.000000    3.614967 
   0.000000    1.807473    5.422440 
   2.020768   21.657964    5.460976 
   1.910147    1.835784    3.669304 
   0.000000    0.000000    7.229913 
   0.000000    1.807473    9.037407 
   2.010327    0.107192    8.943917 
   2.005307    1.913102    7.268600 
   0.000000    0.000000   10.844880 
   0.000000    1.807473   12.652353 
   2.081049   21.646079   12.512713 
   2.057956    1.803705   10.859510 
   0.000000    0.000000   14.459847 
   0.000000    1.807473   16.267320 
   2.064165    0.021641   16.211672 
   1.965928    1.727641   14.309727 
   0.000000    0.000000   18.074793 
   0.000000    1.807473   19.882287 
   1.963806   21.665805   19.978894 
   1.906467    1.725628   17.978736 
   0.000000    3.614967    0.000000 
   0.000000    5.422440    1.807473 
   1.957419    3.574633    1.787595 
   1.972177    5.378816    0.064291 
   0.000000    3.614967    3.614967 
   0.000000    5.422440    5.422440 
   2.079911    3.606050    5.359919 
   2.042310    5.330623    3.720136 
   0.000000    3.614967    7.229913 
   0.000000    5.422440    9.037407 
   2.115440    3.558542    9.136089 
   2.004690    5.341265    7.376427 
   0.000000    3.614967   10.844880 
   0.000000    5.422440   12.652353 
   1.999274    3.644825   12.524501 
   1.941866    5.411796   10.821681 
   0.000000    3.614967   14.459847 
   0.000000    5.422440   16.267320 
   2.037250    3.479673   16.174001 
   1.967736    5.391212   14.425917 
   0.000000    3.614967   18.074793 
   0.000000    5.422440   19.882287 
   1.970652    3.635093   19.768144 
   2.038097    5.400154   17.842173 
   0.000000    7.229913    0.000000 
   0.000000    9.037407    1.807473 
   1.923312    7.189783    1.837951 
   1.958127    9.048365   21.653348 
   0.000000    7.229913    3.614967 
   0.000000    9.037407    5.422440 
   1.966359    7.186479    5.514018 
   1.932970    9.006228    3.692606 
   0.000000    7.229913    7.229913 
   0.000000    9.037407    9.037407 
   2.029112    7.361465    9.227121 
   1.951270    9.159277    7.300412 
   0.000000    7.229913   10.844880 
   0.000000    9.037407   12.652353 
   2.005741    7.247276   12.770257 
   2.018857    9.120578   10.942541 
   0.000000    7.229913   14.459847 
   0.000000    9.037407   16.267320 
   2.032340    7.301071   16.255732 
   2.087948    9.094985   14.626405 
   0.000000    7.229913   18.074793 
   0.000000    9.037407   19.882287 
   2.031346    7.146138   19.730915 
   2.050017    9.058241   18.043876 
   0.000000   10.844880    0.000000 
   0.000000   12.652353    1.807473 
   2.051064   10.783298    1.706225 
   2.032039   12.662398   21.663097 
   0.000000   10.844880    3.614967 
   0.000000   12.652353    5.422440 
   1.962710   10.879228    5.393166 
   2.008555   12.552553    3.579911 
   0.000000   10.844880    7.229913 
   0.000000   12.652353    9.037407 
   1.964334   10.909588    9.124172 
   2.068108   12.722103    7.310694 
   0.000000   10.844880   10.844880 
   0.000000   12.652353   12.652353 
   2.022857   10.827757   12.706605 
   2.034611   12.694192   10.888223 
   0.000000   10.844880   14.459847 
   0.000000   12.652353   16.267320 
   2.027064   10.802111   16.240700 
   2.075274   12.647770   14.441571 
   0.000000   10.844880   18.074793 
   0.000000   12.652353   19.882287 
   2.044451   10.861283   19.880179 
   2.085136   12.582696   18.135703 
   0.000000   14.459847    0.000000 
   0.000000   16.267320    1.807473 
   2.004089   14.398303    1.848176 
   1.968924   16.213540    0.115371 
   0.000000   14.459847    3.614967 
   0.000000   16.267320    5.422440 
   2.024105   14.416782    5.314149 
   1.996584   16.337511    3.560369 
   0.000000   14.459847    7.229913 
   0.000000   16.267320    9.037407 
   2.001623   14.577219    9.082025 
   1.898907   16.249479    7.247466 
   0.000000   14.459847   10.844880 
   0.000000   16.267320   12.652353 
   1.987191   14.476918   12.747783 
   1.934268   16.204683   10.977794 
   0.000000   14.459847   14.459847 
   0.000000   16.267320   16.267320 
   2.003051   14.438209   16.232878 
   1.996741   16.311935   14.387953 
   0.000000   14.459847   18.074793 
   0.000000   16.267320   19.882287 
   1.988896   14.422765   19.841827 
   2.029516   16.345103   18.072551 
   0.000000   18.074793    0.000000 
   0.000000   19.882287    1.807473 
   2.049668   18.207272    1.893835 
   2.082256   19.922805    0.070393 
   0.000000   18.074793    3.614967 
   0.000000   19.882287    5.422440 
   1.962722   18.175506    5.358436 
   1.993120   19.953243    3.538856 
   0.000000   18.074793    7.229913 
   0.000000   19.882287    9.037407 
   1.971651   17.848553    8.999761 
   1.914542   19.792426    7.197087 
   0.000000   18.074793   10.844880 
   0.000000   19.882287   12.652353 
   2.073375   18.114698   12.628846 
   2.033368   19.807705   10.763189 
   0.000000   18.074793   14.459847 
   0.000000   19.882287   16.267320 
   1.948853   18.097788   16.247819 
   2.008809   19.902345   14.408328 
   0.000000   18.074793   18.074793 
   0.000000   19.882287   19.882287 
   1.917139   18.064724   19.904871 
   2.008097   19.881650   18.143483 
   3.833591    0.056493    0.066012 
   3.817494    1.676957    1.808819 
   5.786222    0.096940    1.894836 
   5.697711    1.834250    0.031538 
   3.876021   21.586147    3.669342 
   3.882766    1.720918    5.475766 
   5.847845   21.634430    5.494302 
   5.709230    1.820557    3.736064 
   3.891457   21.651591    7.320635 
   3.928118    1.808677    9.066455 
   5.859020   21.616649    8.859998 
   5.701383    1.871685    7.216363 
   3.943270   21.607677   10.743931 
   3.871862    1.783483   12.636633 
   5.787376   21.599297   12.637324 
   5.750718    1.687738   10.880079 
   3.908276   21.642063   14.291754 
   3.908091    1.781717   16.248091 
   5.699507   21.634446   16.345650 
   5.749069    1.805191   14.426318 
   3.761236    0.028989   18.160983 
   3.798123    1.774029   19.842362 
   5.760437    0.090831   19.845973 
   5.851546    1.741654   18.110851 
   3.868011    3.645459    0.088814 
   3.838029    5.461964    1.826416 
   5.663985    3.612162    1.813170 
   5.708008    5.440687   21.578062 
   3.920279    3.576454    3.553428 
   3.809863    5.470025    5.530984 
   5.640076    3.693963    5.449737 
   5.585868    5.542841    3.618300 
   3.838481    3.645610    7.175516 
   3.915257    5.424456    9.187189 
   5.768110    3.555007    9.078398 
   5.658852    5.447898    7.313274 
   3.967402    3.560024   10.865884 
   3.890523    5.502613   12.639261 
   5.808466    3.513677   12.644404 
   5.821747    5.463157   10.923328 
   3.854525    3.619620   14.371927 
   3.965255    5.345845   16.251177 
   5.802925    3.586966   16.298590 
   5.764526    5.312421   14.433694 
   3.902616    3.639591   17.973387 
   3.852618    5.323301   19.878581 
   5.708926    3.534233   19.842186 
   5.886089    5.390563   18.040730 
   3.788876    7.239256   21.613866 
   3.919072    8.936537    1.730480 
   5.775045    7.303684    1.662643 
   5.816979    8.958371   21.613442 
   3.802240    7.316535    3.683625 
   3.836230    9.045547    5.545900 
   5.743964    7.201904    5.492343 
   5.678824    9.073620    3.676153 
   3.805607    7.268270    7.415184 
   3.942227    9.193534    9.170248 
   5.668699    7.249453    9.036574 
   5.777246    9.190480    7.200125 
   3.861301    7.288475   10.923992 
   3.997426    9.022845   12.723021 
   5.932692    7.237735   12.656456 
   5.759125    9.193079   10.923618 
   3.878583    7.259261   14.455623 
   4.053748    9.056550   16.362668 
   5.748521    7.121558   16.178955 
   5.926556    9.076999   14.482048 
   3.983796    7.044923   17.965961 
   3.880839    8.953019   19.864386 
   5.795020    7.264526   19.799766 
   5.879465    9.126285   18.048250 
   3.874254   10.751214    0.016244 
   3.992802   12.608811    1.773901 
   5.794624   10.710280    1.768247 
   5.902818   12.565468    0.078970 
   3.847820   10.763206    3.642695 
   3.858350   12.634845    5.508764 
   5.676697   10.893869    5.450266 
   5.842169   12.468479    3.569631 
   3.814058   10.779122    7.315398 
   3.907429   12.794850    9.090150 
   5.755780   10.971929    9.021888 
   5.743025   12.761215    7.193843 
   3.931880   10.945219   10.914385 
   3.986175   12.653606   12.752121 
   5.859857   10.966320   12.780523 
   5.897413   12.708459   10.836682 
   3.956944   10.922104   14.584778 
   3.934591   12.720031   16.376285 
   5.892053   10.899397   16.226763 
   5.835069   12.826126   14.554664 
   3.949965   10.841551   18.070237 
   4.053363   12.562520   19.952889 
   5.853722   10.756321   19.915713 
   5.764786   12.730457   18.118377 
   3.801504   14.475773   21.685857 
   3.918139   16.183606    1.793351 
   5.722804   14.503687    1.877224 
   5.812062   16.264724    0.097341 
   3.956764   14.391556    3.659556 
   3.833150   16.339543    5.356810 
   5.867433   14.411495    5.390316 
   5.813231   16.271900    3.659384 
   3.885440   14.560068    7.100348 
   3.956558   16.204882    9.028703 
   5.924148   14.450427    9.005581 
   5.801284   16.177765    7.240488 
   4.037740   14.496194   10.968911 
   3.976896   16.321099   12.623533 
   6.000583   14.570703   12.710109 
   5.831605   16.271621   10.847667 
   3.839395   14.545382   14.523678 
   3.887104   16.293090   16.355250 
   5.898806   14.600244   16.471965 
   5.849643   16.303050   14.622051 
   3.866875   14.479321   18.086524 
   3.859815   16.344277   20.009033 
   5.745286   14.479319   20.052159 
   5.777155   16.345413   18.133358 
   3.880570   18.081238    0.109871 
   4.003777   20.027994    1.873365 
   5.804299   18.121244    1.895779 
   5.685504   20.017337    0.185567 
   4.041903   18.049907    3.563011 
   3.887133   19.937672    5.416354 
   5.761793   18.042290    5.441536 
   5.833657   19.904709    3.765987 
   3.922817   18.065483    7.143183 
   3.885849   19.822768    8.905945 
   5.788282   18.084015    9.032301 
   5.824085   19.766694    7.204368 
   3.947849   18.073406   10.682165 
   4.049567   19.818152   12.620937 
   5.935063   18.038296   12.606585 
   5.911867   19.942824   10.748884 
   4.009597   18.028988   14.492275 
   3.809661   19.784735   16.308421 
   5.753514   18.076781   16.355124 
   5.841924   19.836100   14.438078 
   3.966573   18.096836   18.157516 
   3.890320   19.890649   19.985513 
   5.754330   18.195966   20.032776 
   5.791978   20.014470   18.212682 
   7.732784    0.120929    0.219126 
   7.678264    1.828987    1.947518 
   9.788088    0.224827    2.052106 
   9.604239    1.760181   21.578518 
   7.690120    0.153462    3.746214 
   7.574242    1.992304    5.351696 
   9.960233   21.519516    5.288486 
   9.773700    1.954851    3.983579 
   7.794910    0.041420    6.990234 
   7.666378    1.730781    8.989268 
   9.701741    0.224907    8.873044 
   9.616504    1.825499    7.089072 
   7.759687    0.032106   10.766234 
   7.730968    1.599154   12.746183 
   9.764222   21.394973   12.808611 
   9.800992    1.553824   11.169243 
   7.788391   21.574999   14.460329 
   7.681193    1.724199   16.351502 
   9.807343    0.125979   16.232842 
   9.794415    1.879898   14.244977 
   7.806276   21.677721   18.092258 
   7.699987    1.931131   19.969579 
   9.628230   21.519641   20.017578 
   9.691490    1.818017   18.285270 
   7.654318    3.594934    0.113962 
   7.549813    5.597459    1.791004 
   9.562478    3.558306    1.899407 
   9.674907    5.565402    0.226104 
   7.563463    3.749324    3.637065 
   7.593226    5.340819    5.551433 
   9.686122    4.064001    5.404276 
   9.622819    5.694635    3.417146 
   7.729815    3.681784    7.217764 
   7.558664    5.380611    9.193205 
   9.557717    3.312701    9.267285 
   9.695932    5.359363    7.701113 
   7.656736    3.376453   10.902255 
   7.686052    5.362650   12.635027 
   9.547288    3.724606   12.365785 
   9.727625    5.496514   10.662338 
   7.733830    3.528780   14.519882 
   7.733106    5.424350   16.232724 
   9.596236    3.441176   16.312408 
   9.693798    5.179685   14.413914 
   7.702451    3.580352   18.098236 
   7.536255    5.390400   19.809052 
   9.563040    3.867683   20.003567 
   9.659582    5.372592   17.841562 
   7.751948    7.242662   21.490173 
   7.598697    8.986157    1.884332 
   9.672108    7.574839    1.701696 
   9.772107    9.109939   21.449543 
   7.597399    7.291443    3.572573 
   7.633556    9.082743    5.414771 
   9.570550    6.820552    5.651697 
   9.665807    8.774179    3.946617 
   7.588019    7.192967    7.331380 
   7.582990    9.151364    9.085457 
   9.677456    7.559365    8.993631 
   9.705411    9.080128    7.054582 
   7.679903    7.299522   10.811373 
   7.744911    9.121132   12.775721 
   9.689265    7.184634   12.778693 
   9.584246    9.193329   11.077991 
   7.723554    7.192456   14.481317 
   7.737772    9.072882   16.231578 
   9.689539    7.308651   16.127547 
   9.736089    9.158331   14.423090 
   7.668456    7.211952   17.985037 
   7.811521    9.011570   19.727856 
   9.617498    7.060571   19.818878 
   9.776355    8.891223   17.985101 
   7.813280   10.792334    0.001601 
   7.648585   12.546388    1.765309 
   9.773156   10.438800    1.913422 
   9.725319   12.542734    0.299192 
   7.762902   10.834189    3.590319 
   7.689178   12.554349    5.378394 
   9.826911   10.909790    5.267055 
   9.624234   12.626020    3.497876 
   7.744593   10.850266    7.214687 
   7.755211   12.628714    9.017699 
   9.821327   10.793479    9.056842 
   9.700919   12.584570    7.241741 
   7.688306   10.930886   10.976010 
   7.745577   12.818154   12.783163 
   9.709282   11.066007   12.910220 
   9.658540   12.599937   10.908480 
   7.811040   10.937431   14.474430 
   7.547064   12.775753   16.289255 
   9.650318   10.794721   16.394240 
   9.590745   12.785162   14.862179 
   7.657816   10.910028   18.032880 
   7.628977   12.632260   19.877647 
   9.660849   11.064939   19.743962 
   9.538284   12.732299   17.918708 
   7.625150   14.373761    0.044034 
   7.661715   16.202722    1.748475 
   9.616851   14.565454    1.789075 
   9.584181   16.285386   21.529148 
   7.668581   14.438289    3.617774 
   7.733199   16.339446    5.369749 
   9.672229   14.373269    5.320824 
   9.804344   16.285206    3.753302 
   7.811077   14.392220    7.148148 
   7.767284   16.194867    9.015632 
   9.923741   14.402339    9.106210 
   9.672219   16.217329    7.150878 
   7.789311   14.513437   10.828215 
   7.839763   16.383700   12.663386 
   9.674964   14.420265   12.682402 
   9.929005   16.290662   10.932732 
   7.813600   14.699324   14.686436 
   7.674974   16.444805   16.566412 
   9.714166   14.843436   16.550213 
   9.946480   16.254184   14.338394 
   7.724453   14.459592   18.264559 
   7.510910   16.347240   20.108184 
   9.787240   14.140984   20.108679 
   9.493635   16.359022   18.522963 
   7.591189   18.162934    0.078477 
   7.660868   20.036814    2.028467 
   9.544678   17.919008    1.722341 
   9.653695   20.055385    0.503628 
   7.707515   18.010814    3.609640 
   7.789841   19.776499    5.406741 
   9.786970   18.128087    5.536417 
   9.820691   19.779156    3.570698 
   7.837683   17.974057    7.323801 
   7.828443   19.803077    8.984149 
   9.747717   17.944577    8.996408 
   9.697266   19.934498    7.274837 
   7.929461   17.977807   10.783259 
   7.795352   19.852381   12.608150 
   9.634488   18.207193   12.678976 
   9.674392   19.987570   10.647747 
   7.761137   18.068291   14.541727 
   7.677923   19.837140   16.276772 
   9.899675   17.778340   16.465320 
   9.733384   19.678253   14.789617 
   7.750906   18.248525   18.376205 
   7.603694   19.990369   20.228843 
   9.560383   18.399416   20.191654 
   9.736006   20.010364   17.991756 
  19.416212    1.961496    0.392749 
  47.781428    1.587662   21.374872 
  27.056773    6.206374    9.929326 
  12.886220    7.647083    3.298753 
  18.824865   12.447487   13.884954 
  49.799470   10.799257   10.585641 
  50.482172   13.959637   18.034080 
  36.874830   17.297946    3.827278 
  32.074453    2.903070    5.597698 
  15.632186    9.153603   11.761206 
  50.351264   18.813785    1.218423 
  21.778991   11.515075   15.512781 
  49.772100   17.640152   19.221999 
  26.858738    9.460258   11.349204 
  24.251049    3.208996    5.147345 
  39.457570    9.883983    7.094559 
  21.360403   16.197290    3.721284 
  12.736759    7.174584   11.773441 
  37.399544    8.395248   21.114292 
  30.881811   11.858450    0.038957 
  30.059180    4.624984   17.112516 
  32.808213   13.223296    2.438728 
  20.193138   18.286809   11.746670 
  28.882159    0.500919    2.777347 
  26.673664   20.542009   20.490345 
  46.006061    7.011051    6.501732 
  25.890547    5.795047    3.078897 
  50.490543    6.804720   18.406153 
  40.910716    9.187420   15.804942 
  16.803037    3.421483   14.454646 
 157.656231    6.406822    8.391470 
  42.028883    7.444726   13.046778 
  36.809817    8.469909    3.945920 
  51.953383   16.305242    2.636418 
  15.739392   16.371471   19.844606 
  33.699176    8.440347   10.007925 
  30.505221   19.522627   16.129162 
  18.841268    9.199200   15.322788 
  37.862093   11.468092   20.134349 
  32.131749   13.105320    8.926117 
  38.688496    2.372373   15.312633 
  52.320619    6.563832   14.771875 
  38.631564    6.650265    5.860551 
  51.442205    8.576201    3.971958 
  43.696267   14.963731    0.707335 
  15.622970    0.647216   16.190665 
  12.912516    5.699585   15.652709 
  46.700085   18.847035   13.088080 
  15.905333    7.887277   16.286090 
 157.747946   10.965997    9.485124 
  28.277804   11.280428   17.307361 
  12.749032    0.487648   18.604058 
  33.852731   21.284256    5.797103 
  22.853646   18.110752   13.520504 
  21.768669   12.315113    6.831607 
 155.097313   19.511603    3.037546 
  37.017492   18.504004    0.913345 
  52.462502    0.545176    3.131822 
  53.847296    4.249861    0.317573 
  48.875157   16.435473   11.232468 
  24.856373   13.936644    9.322859 
  55.498728    6.118518   13.148113 
  31.732892    2.115254    2.062721 
  44.271765   15.701810   11.865483 
  34.881645   10.295790   18.540227 
  32.714953    0.478907    9.613698 
  19.006530    0.042018   17.372159 
  99.903032    1.342660    6.010819 
  15.565994   10.718254    6.874242 
  43.020440   15.343969    6.252510 
  51.821772   12.909422   14.961455 
  21.532964    6.817724    0.256470 
  18.638343    7.754583   18.157410 
  27.395349   20.497769   13.936613 
  25.283862    6.571668   16.995246 
  46.842951   19.167621   16.517231 
  53.158348    0.432587   16.057234 
  21.712933   19.307986   18.148589 
  38.614155    2.710163    3.650059 
  46.607053    3.701657   10.748816 
  49.050601   16.799582   15.082426 
  42.243628   19.191708   16.913232 
  37.990356    3.739846    0.039026 
  43.758307   13.172453    3.344309 
  20.111021   19.379750    2.793162 
  19.174577    5.558799    8.509790 
  44.160245   21.051819   13.920157 
  25.405672    6.761307    6.702735 
  17.009408   17.658628   13.347633 
  34.764881   11.692953   10.817370 
  38.991926    4.641877   12.557476 
  54.544940    9.495988    5.048747 
  34.857263   11.443777    0.310698 
  54.771154   15.427772   14.862527 
  41.805571   18.317842   20.815705 
  42.039272    1.472637   17.835257 
 157.842803   13.526168   17.831097 
  28.373991    6.977200    1.145574 
  42.182561   15.825676   17.380301 
  15.597580   16.718924    9.886764 
  15.945670   18.966965    6.770158 
  25.138343    6.919738   13.418314 
  16.395749    7.870250    8.370134 
  43.597569   20.804281   19.788833 
  41.255566   16.562452   14.299539 
  52.474740   12.212313    4.018004 
  28.571845   15.352088   19.458274 
  33.443809    5.250180   11.756054 
  35.687635   16.825662   19.383613 
  24.252272   10.078335    6.277231 
  32.820051   17.996111    0.388583 
  38.743230   18.153417   19.722168 
  39.877462    7.953461   18.591428 
  45.651412    9.720045   20.447846 
  30.177524    9.929670   10.202685 
  15.636866    5.556814    4.282780 
  36.360348    8.850411    7.268403 
  23.394289    0.176985   20.251370 
  12.617799    2.432026    5.871676 
  12.840508    7.979801   18.801952 
  46.366641    9.615540    8.091422 
  52.659024   20.189401   19.352741 
  54.893496   10.076229    8.528557 
  12.821218   11.124306    3.036893 
  22.008338    3.652918    1.616347 
  49.870727    5.333109    0.183300 
  16.568350   18.895996   16.414847 
 158.007433   12.372090    3.869492 
  35.970201    7.673843   12.440950 
  53.941812    3.298720    8.549114 
  41.811785    7.081328    4.478010 
 157.579111   15.872088   21.444561 
  13.219491   18.484559   18.309888 
  37.279031   11.880414   16.457538 
  28.188154    2.490405   11.281619 
  12.826656    2.618270   21.479988 
  48.255070   21.615602   14.141315 
  12.845761    6.724253    0.217854 
  33.913255    6.508576   16.110537 
  35.924478    2.954948    5.943871 
  20.081479   18.301311   15.322060 
  33.939532   19.330185   16.521443 
  38.667722    6.237688    1.910557 
  21.229209    3.189988   18.165138 
  47.248097   12.662740    9.692772 
  15.686163    5.641005   18.857875 
  12.950918   15.990622    8.528727 
  38.075123    1.799810   19.144336 
  29.675554   15.345844    7.940460 
  25.599941    2.769759    8.895943 
  21.725363   17.052955   21.611167 
  22.843075    6.389414    3.689165 
  35.383441    2.684687    2.471392 
  44.607532    4.228368    7.926594 
  42.829176    6.700135   16.716897 
  39.019119   10.222992   13.519225 
  39.263879   14.184755   15.327558 
  38.908929   19.454647    5.695767 
  39.713009    0.058007    8.092215 
  46.484719    3.152869   14.415947 
  42.821846   10.623363    0.539587 
  39.792746   16.639184    1.112312 
  25.069553   17.602890   19.298708 
  31.836759   16.409933   11.170942 
  22.398421   21.605069   15.229606 
  34.631481   18.338805    7.801200 
  13.415565   13.333216   21.045885 
  15.835217    1.829815    4.631074 
  53.516876    7.963461   19.758696 
  46.159090   19.928634    1.701590 
  38.189045   12.846634   10.414657 
  31.797466    9.145006   17.398363 
  49.073233    6.452619   11.868399 
  48.837559   14.980706    4.922867 
  52.659158    7.401919   10.971522 
  29.976254   12.026489    3.346253 
  25.543737   20.404067    8.940615 
  18.473291   21.236715   14.176951 
 157.648589   19.277652    9.904601 
  28.492838    8.220158   15.487073 
  28.415023   13.277779   10.168915 
  30.679782   19.370708    7.678661 
  13.045362    9.407085    9.327661 
  35.266460    1.888432   20.740362 
  20.364340    9.546965    4.056911 
  34.513998   17.207945   13.534692 
  33.883124   21.280835    1.510100 
  40.244801   20.875393   19.720002 
  43.596781    5.558018   20.136326 
  25.726977    1.682383    2.353876 
  44.990569    2.635295   19.921963 
 157.616702   21.616248   13.911620 
  13.083014    9.339787   15.721489 
  12.872635    3.732169   12.486842 
  13.986729   16.620753   15.299515 
  46.495549   16.123723    8.303157 
  35.923284    4.260595   14.233900 
  12.937109   11.183823   12.574966 
  12.871629    4.221405   18.554679 
  27.170290   17.731480   16.984465 
  38.465174   15.081927   20.585854 
  12.765109   20.115180   21.405384 
  32.255951   17.376865   18.564288 
  55.155193    6.895073   16.876430 
  12.820162   14.893812    2.787967 
  26.391265   19.937849    2.975862 
  24.265871   12.366978    4.025595 
  24.514081   15.943058    6.763300 
  43.437415   12.822143   16.240531 
  52.193126   10.741703   21.296042 
  16.723114   18.480473    0.816819 
  42.240872    4.635405   11.272114 
  41.282899   12.466377    6.383035 
  40.467899   13.137424    0.712716 
  33.740483   12.622853   15.811925 
  32.511417    9.782368    7.151192 
  27.762364    4.614783   19.762339 
  48.859354    6.976111    8.738975 
  27.018554   12.884043   13.156679 
  50.961253   14.144772   21.329331 
  18.705757    4.719056   17.038006 
  43.596119   11.830078    8.841322 
  20.434863   15.265179    8.301978 
  18.459822   17.940814   19.032111 
  18.695199    7.578441    6.083481 
  31.326694    1.333771   18.255573 
  15.522985   13.276747   17.527554 
  31.322922    4.745930   21.196525 
  32.233392    9.020829   13.513092 
  51.795875    2.381137    5.815622 
  29.704954   19.199009   11.070286 
  13.039674    1.090398    2.787777 
  46.565136    5.052074    0.862370 
  24.393163    3.089331   21.074439 
  16.535882   11.445612   21.649808 
  36.362417   13.831847   13.097860 
 101.258717   16.954578    3.684514 
  16.810938   16.454099    4.538181 
  13.320834   16.709852    5.520177 
  15.949469   10.970860   15.182232 
  30.886636    4.226462    9.687734 
  33.027995    4.814504   18.603002 
  12.574614    4.273299    3.037708 
  45.914781   13.042829   12.968074 
  27.492381   16.834171   10.123156 
  52.824158   17.276472   21.096848 
  40.407537    6.699216    9.257085 
  25.375995    1.358354   14.502445 
  20.099933   19.092374    5.927620 
  36.517387    4.275839   17.627854 
  12.844654    2.344652   15.966310 
  37.427489   14.990610    7.175408 
  41.505734   12.879425   13.179057 
  57.196002    3.177604   12.739507 
  12.847366   13.421944    6.275581 
  50.047358    3.619694    9.163275 
  38.656036   15.617771   11.829818 
  18.704118    5.170966   20.504826 
  51.597225    0.487219    8.861231 
  15.912493    0.546278    0.947728 
  20.271524    2.182512   14.980284 
  45.737553   20.048354    6.895256 
  49.963114    9.260581   14.506678 
  13.195006   20.495038    5.756798 
  32.746417    3.370841   15.554334 
  53.585341    9.742512   15.842282 
  16.330412   20.054027    3.680629 
  58.043908    9.085184    8.211267 
  49.198309   12.238324    2.333012 
  40.750883   10.763178    9.914649 
  12.975749    9.255194    5.988138 
  26.704645   17.171086    0.573388 
  54.608454    3.353088   15.048189 
  19.065168   14.085519    5.271834 
  43.320437    8.159480    8.007745 
  43.881561   10.345789   11.987671 
  19.556863    1.497053    7.514507 
  47.045699   15.176045   17.692353 
  23.832794   19.408309    0.869301 
  42.971945    2.785802   14.923271 
  15.770353   12.485712    4.046943 
  40.484264    4.555946   18.840018 
  15.688727    0.223882    8.494734 
  12.767782   14.320024   11.828077 
  27.114414   12.227324    7.398093 
  22.234061    9.942773   19.005425 
  41.304472   13.174424   19.348390 
  19.433591    6.021653    2.913283 
  41.507679    0.058920   11.283234 
  35.554035   15.581381    0.955943 
  23.196535   17.230510   10.139805 
  37.250901    8.467728   16.045742 
  28.147325   14.514765    4.622684 
  52.427931    1.411908   12.998390 
  59.661466    2.692951   16.643638 
  45.814290    0.199876   10.701393 
  15.970510   14.311104    7.406078 
  44.955326   12.896538   19.804042 
  24.989604   15.822300    3.202095 
  38.078625   19.618140   13.018428 
  21.130760   14.190462   19.230144 
  43.049593   20.706555    4.013358 
  38.282826    1.126571   12.190094 
  28.319860    3.107257    5.306583 
  16.145615   14.387709   13.620516 
  31.093365   11.501744   20.684975 
 157.288007   20.551133   17.063840 
  18.736780   12.288873   17.896032 
  15.960974    5.435441   11.519903 
  12.684956   15.159174   18.599345 
  50.318790    0.622101   19.628704 
  29.326299    1.044790   21.242044 
  25.223112   20.588425   17.491891 
  22.444454    0.580029    6.240579 
  43.212575    0.962829    7.270469 
  29.111841    6.323672    4.228605 
  38.144171   17.995281    8.672939 
  47.554258    6.770348   19.660298 
  22.481282    7.961271   15.563586 
  30.205285    6.757531    7.791685 
  13.294516   10.102339   21.450830 
  38.561506   17.626514   15.929089 
  18.306804   15.495336   15.795146 
  38.882363   14.231960    3.879640 
  29.760321   18.656808   20.528127 
  29.997805    1.374567   14.682887 
  41.507821    4.175702    6.724269 
  39.583709   19.968133    2.245561 
  18.619097   12.080358    2.390191 
  41.461006   18.657574    7.815755 
 157.572395   21.634428   20.330879 
 157.857465    3.284568   12.894700 
  23.735378   18.924430    4.409820 
  12.921258   16.836591   21.592551 
  40.729674   21.413211   15.019880 
  44.793065    6.467751   10.379553 
 118.306698   16.650521    6.037992 
  18.837123    0.544145   18.356363 
  48.769002   10.316102    5.486174 
  27.422591    1.483588   18.121443 
  48.298422   12.406191   20.283612 
  21.936850    3.619064    9.032610 
  45.969916   12.564489    6.346712 
  35.256787    5.685896    1.003126 
  47.275145   10.046547   12.702251 
  28.553638   14.926161   15.642592 
  43.740082   10.428794    5.525427 
  42.161036    2.401612    3.979128 
  12.996873    4.588671    9.173505 
  73.992182    4.683473    5.340813 
  50.193528   19.796182   16.476437 
  45.407217    6.873452   14.019919 
  12.911236   13.381809   15.377289 
  16.252909    2.362581   18.961029 
  18.628333    7.860362   11.374037 
  23.386843    4.132688   14.725158 
  53.335638    4.250746   18.130431 
  35.429805   13.434412   19.141072 
  37.653291    9.406308   10.258335 
  19.825769    9.707230    0.381155 
  50.067041   18.622557    7.494455 
  48.469470    2.825227    2.872255 
  35.478183   15.522120   16.348087 
  29.678526    7.776596   19.885280 
  30.935703   16.394052    4.616823 
  55.251239   13.189183   17.645806 
  12.663658   11.586496   18.293528 
  44.947948    1.597585    1.846068 
  24.300997   10.147558    0.662493 
  33.846983   18.358467    3.928398 
  33.145458    1.979855   12.793143 
  29.563818    7.106489   12.120649 
  60.374511   16.580896   18.942965 