System 
          1
 160.844879    0.000000    0.000000 
   0.000000   21.689760    0.000000 
   0.000000    0.000000   21.689760 
  Cu  C
  432  521
Cartesian  configuration=        1000000
   0.000000    0.000000    0.000000 
   0.000000    1.807473    1.807473 
   2.014336   21.672240    1.887596 
   2.007172    1.794747    0.050730 
   0.000000    0.000000    3.614967 
   0.000000    1.807473    5.422440 
   2.039174    0.020856    5.405146 
   2.029365    1.849360    3.624519 
   0.000000    0.000000    7.229913 
   0.000000    1.807473    9.037407 
   1.923003   21.652119    9.013467 
   2.090487    1.848996    7.191179 
   0.000000    0.000000   10.844880 
   0.000000    1.807473   12.652353 
   2.034567   21.601061   12.561824 
   2.073351    1.664907   10.839957 
   0.000000    0.000000   14.459847 
   0.000000    1.807473   16.267320 
   2.016121    0.104438   16.204257 
   2.073887    1.851691   14.433076 
   0.000000    0.000000   18.074793 
   0.000000    1.807473   19.882287 
   1.955186    0.052322   19.870870 
   2.039316    1.863515   18.130346 
   0.000000    3.614967    0.000000 
   0.000000    5.422440    1.807473 
   2.160351    3.556126    1.763764 
   1.871342    5.459785    0.037639 
   0.000000    3.614967    3.614967 
   0.000000    5.422440    5.422440 
   1.969122    3.540727    5.564421 
   2.080048    5.259072    3.735522 
   0.000000    3.614967    7.229913 
   0.000000    5.422440    9.037407 
   2.052016    3.582431    9.093289 
   2.034527    5.363124    7.295371 
   0.000000    3.614967   10.844880 
   0.000000    5.422440   12.652353 
   1.936899    3.661648   12.643439 
   1.944962    5.468476   10.783229 
   0.000000    3.614967   14.459847 
   0.000000    5.422440   16.267320 
   2.019188    3.551563   16.275381 
   2.019022    5.430844   14.453986 
   0.000000    3.614967   18.074793 
   0.000000    5.422440   19.882287 
   2.030036    3.680276   19.946219 
   2.102839    5.409995   18.091448 
   0.000000    7.229913    0.000000 
   0.000000    9.037407    1.807473 
   2.012742    7.133250    2.011722 
   1.984231    8.985893    0.096895 
   0.000000    7.229913    3.614967 
   0.000000    9.037407    5.422440 
   2.010163    7.149382    5.461599 
   2.003564    9.130046    3.666012 
   0.000000    7.229913    7.229913 
   0.000000    9.037407    9.037407 
   1.878733    7.263578    9.024445 
   2.110695    8.955314    7.208103 
   0.000000    7.229913   10.844880 
   0.000000    9.037407   12.652353 
   2.006490    7.229146   12.774144 
   2.083251    9.052954   10.971508 
   0.000000    7.229913   14.459847 
   0.000000    9.037407   16.267320 
   1.947758    7.129009   16.298190 
   1.992154    9.005533   14.502647 
   0.000000    7.229913   18.074793 
   0.000000    9.037407   19.882287 
   2.018725    7.197408   19.839929 
   2.022148    9.001674   17.986268 
   0.000000   10.844880    0.000000 
   0.000000   12.652353    1.807473 
   1.990798   10.953083    1.775567 
   2.053542   12.719756    0.081436 
   0.000000   10.844880    3.614967 
   0.000000   12.652353    5.422440 
   1.947548   10.855310    5.404579 
   1.962695   12.749302    3.662011 
   0.000000   10.844880    7.229913 
   0.000000   12.652353    9.037407 
   2.001436   10.774960    9.116681 
   1.894207   12.729256    7.291171 
   0.000000   10.844880   10.844880 
   0.000000   12.652353   12.652353 
   1.935711   10.955382   12.629912 
   2.032001   12.771710   10.768161 
   0.000000   10.844880   14.459847 
   0.000000   12.652353   16.267320 
   1.961780   10.847108   16.238062 
   1.986674   12.553640   14.480667 
   0.000000   10.844880   18.074793 
   0.000000   12.652353   19.882287 
   1.914346   10.775221   19.979648 
   2.049795   12.508473   18.192215 
   0.000000   14.459847    0.000000 
   0.000000   16.267320    1.807473 
   1.979287   14.507733    1.825834 
   1.907524   16.298851   21.619343 
   0.000000   14.459847    3.614967 
   0.000000   16.267320    5.422440 
   2.046890   14.561888    5.408995 
   2.029065   16.365137    3.624249 
   0.000000   14.459847    7.229913 
   0.000000   16.267320    9.037407 
   2.018417   14.468849    9.063079 
   1.989517   16.305957    7.280192 
   0.000000   14.459847   10.844880 
   0.000000   16.267320   12.652353 
   1.937042   14.495665   12.637755 
   1.986612   16.220703   10.799669 
   0.000000   14.459847   14.459847 
   0.000000   16.267320   16.267320 
   1.957533   14.526730   16.251160 
   2.014207   16.306462   14.358799 
   0.000000   14.459847   18.074793 
   0.000000   16.267320   19.882287 
   1.961446   14.558508   19.872444 
   1.989236   16.475320   18.098808 
   0.000000   18.074793    0.000000 
   0.000000   19.882287    1.807473 
   1.921254   18.057418    1.712864 
   1.966237   19.952194    0.033924 
   0.000000   18.074793    3.614967 
   0.000000   19.882287    5.422440 
   2.007754   17.988537    5.403971 
   2.102081   19.767166    3.567152 
   0.000000   18.074793    7.229913 
   0.000000   19.882287    9.037407 
   2.076328   18.055876    9.083778 
   2.000165   19.916669    7.231765 
   0.000000   18.074793   10.844880 
   0.000000   19.882287   12.652353 
   1.959034   18.130265   12.562631 
   1.952499   19.868659   10.740955 
   0.000000   18.074793   14.459847 
   0.000000   19.882287   16.267320 
   1.881016   18.176248   16.241448 
   1.945691   19.902829   14.386568 
   0.000000   18.074793   18.074793 
   0.000000   19.882287   19.882287 
   1.949255   18.160569   19.940153 
   2.051562   19.904116   18.095217 
   3.870661    0.128000   21.621799 
   3.899199    1.832202    1.905135 
   5.781440    0.050854    1.787054 
   5.781707    1.796812    0.105537 
   3.985824    0.022454    3.650149 
   4.015298    1.847939    5.574846 
   5.866582    0.016687    5.448552 
   5.822039    1.698468    3.621061 
   3.951277   21.605132    7.399722 
   3.896042    1.716657    9.074285 
   5.916528    0.029182    8.977140 
   5.762618    1.923501    7.285018 
   3.863635   21.641664   10.723668 
   3.804540    1.857505   12.607082 
   5.767089    0.014429   12.549311 
   5.790346    1.757209   10.796151 
   4.040336    0.101910   14.343172 
   3.984587    1.763136   16.290729 
   5.773920    0.002551   16.143753 
   5.810891    2.004936   14.390013 
   3.896057   21.676782   18.085550 
   3.979023    1.755915   19.869170 
   5.813032   21.630017   19.947701 
   5.817310    1.706578   18.100956 
   3.915616    3.693275    0.129758 
   4.013220    5.457152    1.919205 
   5.905516    3.526623    1.864084 
   5.870952    5.421914    0.013170 
   3.944756    3.548437    3.689712 
   3.953497    5.326949    5.505335 
   5.832998    3.620520    5.478440 
   5.786382    5.467827    3.613153 
   3.910603    3.634038    7.373019 
   3.981187    5.589611    9.136672 
   5.786710    3.580915    9.120375 
   5.837537    5.304947    7.389650 
   4.018537    3.717182   10.768938 
   3.822635    5.405159   12.674171 
   5.835757    3.647886   12.616387 
   5.888184    5.482743   10.927320 
   3.945941    3.592451   14.483734 
   4.049811    5.592256   16.262113 
   5.865601    3.634718   16.352049 
   5.891760    5.383527   14.524302 
   4.013777    3.556245   18.085942 
   3.966297    5.400552   19.887553 
   5.766240    3.625901   19.934554 
   5.910872    5.523811   18.066354 
   3.881752    7.190817   21.645785 
   3.905398    8.949299    1.941770 
   5.732938    7.245985    1.713044 
   5.858498    9.070597    0.087864 
   3.868934    7.216715    3.780091 
   3.991854    9.141155    5.494428 
   5.822663    7.225077    5.574186 
   5.771454    9.035099    3.580925 
   3.989055    7.234732    7.253469 
   3.834567    8.972967    9.108441 
   5.896740    7.303467    9.142638 
   5.760033    9.055748    7.347020 
   3.898167    7.148770   10.984023 
   3.828500    9.044091   12.761391 
   5.843676    7.241412   12.658135 
   5.728229    9.035886   10.873982 
   3.921543    7.111009   14.411444 
   3.906416    8.988491   16.273281 
   5.865787    7.364907   16.229408 
   5.851730    9.001369   14.333433 
   4.025060    7.280138   18.108492 
   3.730227    8.997217   19.989499 
   5.781226    7.397697   19.894068 
   5.796974    9.110299   18.142367 
   3.928140   10.788843    0.108605 
   3.810878   12.668971    1.956867 
   5.738149   10.870248    1.765234 
   5.699068   12.716368    0.030219 
   4.005976   10.946223    3.642136 
   3.847586   12.592164    5.395312 
   5.883173   10.743554    5.433360 
   5.804139   12.604208    3.576666 
   3.787467   10.836866    7.377067 
   3.926052   12.669716    9.025089 
   5.782829   10.888241    9.113799 
   5.717503   12.544175    7.257617 
   3.898838   10.789641   10.886275 
   3.882628   12.587742   12.641910 
   5.823025   10.822439   12.685164 
   5.813290   12.712523   10.902198 
   3.936688   10.833091   14.480168 
   3.816285   12.720916   16.406666 
   5.744995   10.836330   16.296479 
   5.676931   12.661265   14.390434 
   3.846508   10.776094   18.090205 
   3.786960   12.599559   19.916679 
   5.674577   10.774673   19.864815 
   5.716058   12.715457   18.173080 
   3.916234   14.465593    0.030047 
   4.032254   16.258780    1.772742 
   5.831256   14.518902    1.789567 
   5.789287   16.391016    0.041487 
   3.958405   14.478952    3.593629 
   3.929131   16.310241    5.562926 
   5.781680   14.440494    5.478621 
   5.903612   16.346802    3.674077 
   3.970290   14.358154    7.235281 
   3.807844   16.323463    8.997619 
   5.687820   14.435301    9.076236 
   5.817299   16.266108    7.339289 
   3.894359   14.437623   10.819540 
   3.905692   16.299928   12.566912 
   5.675196   14.521085   12.756412 
   5.763527   16.235280   10.934187 
   3.790600   14.365635   14.448030 
   3.737267   16.419715   16.304070 
   5.694855   14.444735   16.155874 
   5.645671   16.345331   14.516847 
   3.792522   14.460585   18.165878 
   3.810541   16.317655   19.846249 
   5.773272   14.367438   19.949238 
   5.705498   16.029922   18.099055 
   3.816392   18.093351   21.684881 
   3.898665   20.010179    1.718535 
   5.939308   18.142891    1.856946 
   5.802605   19.888080    0.132777 
   4.022968   18.079109    3.742112 
   3.980860   19.892508    5.501264 
   5.943706   18.199278    5.494743 
   5.919838   19.838033    3.621581 
   4.017231   18.046684    7.259372 
   3.892613   19.796550    9.064539 
   5.930048   18.015664    9.084787 
   5.880974   19.804852    7.452362 
   3.983272   18.133102   10.866636 
   3.898563   19.938733   12.616567 
   5.885426   18.087603   12.636003 
   5.874765   19.954108   10.782818 
   3.756550   18.192750   14.503720 
   3.847894   19.978967   16.297261 
   5.576023   18.146340   16.323805 
   5.765103   19.754057   14.394179 
   3.895820   18.136081   18.169517 
   3.799100   20.000582   19.914806 
   5.702285   18.180788   19.913049 
   5.647761   19.923557   18.097273 
   7.723053   21.515358    0.140111 
   7.760772    1.691955    1.800796 
   9.884348    0.099083    1.868603 
   9.714263    1.680636   21.558642 
   7.831475    0.028671    3.711265 
   7.707062    1.846288    5.429389 
   9.773540   21.581476    5.365341 
   9.844744    1.887990    3.824382 
   7.733171    0.057239    7.259540 
   7.839316    1.894814    9.036497 
   9.740707    0.224934    9.041190 
   9.793189    2.049587    6.853343 
   7.791647    0.066070   10.972580 
   7.685540    1.963234   12.577589 
   9.716332   21.386211   12.744854 
   9.903446    1.727587   11.194155 
   7.635514    0.015606   14.446028 
   7.560271    1.799261   16.280985 
   9.571031    0.127517   16.282232 
   9.569499    1.825717   14.205019 
   7.603924   21.648146   18.231119 
   7.560641    1.802560   19.962247 
   9.783903   21.367634   20.022059 
   9.522383    1.776029   18.378361 
   7.734576    3.646589   21.584953 
   7.777784    5.469624    1.828579 
   9.499494    3.483699    1.898718 
   9.720221    5.389520    0.036886 
   7.773467    3.638800    3.709586 
   7.636909    5.422229    5.459010 
   9.787665    4.113764    5.282101 
   9.835983    5.715157    3.249952 
   7.820651    3.720715    7.397314 
   7.758925    5.554105    9.120838 
   9.934922    3.380314    9.019819 
   9.769503    5.511921    7.606524 
   7.821737    3.659681   10.799511 
   7.833801    5.415990   12.620276 
   9.809514    3.828992   12.573591 
   9.807922    5.469688   10.589107 
   7.831406    3.632820   14.401440 
   7.776603    5.329100   16.329642 
   9.688262    3.306026   16.206638 
   9.707498    5.510326   14.677041 
   7.597904    3.538930   18.271913 
   7.768352    5.514786   19.931862 
   9.645371    3.629558   19.924982 
   9.815905    5.440478   17.925863 
   7.764004    7.275142    0.040450 
   7.738977    9.127597    1.935505 
   9.800796    7.491459    1.548765 
   9.541072    9.365603   21.606113 
   7.637640    7.198667    3.605988 
   7.701923    9.005730    5.432983 
   9.704105    6.846542    5.490489 
   9.878070    8.851710    3.926160 
   7.690335    7.279808    7.257069 
   7.639847    9.072356    9.234686 
   9.579696    7.543149    9.132807 
   9.727481    8.964088    7.042422 
   7.804620    7.245337   10.852375 
   7.787516    9.046843   12.558434 
   9.697460    7.025618   12.581384 
  10.190076    9.102705   11.122677 
   7.802760    7.242547   14.463361 
   7.670935    9.151702   16.217967 
   9.681003    7.390529   16.262455 
   9.817000    8.881780   14.222521 
   7.807264    7.301239   18.109053 
   7.725601    9.136806   19.839696 
   9.752902    7.341784   19.858623 
   9.719218    9.128038   18.127064 
   7.610288   10.880755    0.081050 
   7.756133   12.691926    1.823294 
   9.766175   10.632905    2.023507 
   9.770321   12.614149    0.334611 
   7.695048   10.981423    3.648743 
   7.667622   12.520690    5.614864 
   9.685298   11.047028    5.558886 
   9.753623   12.723201    3.455497 
   7.797655   10.795422    7.352725 
   7.566566   12.655270    9.168797 
   9.725074   10.518470    9.074564 
   9.631650   12.686195    7.625737 
   7.684059   10.820445   10.955800 
   7.578069   12.816668   12.669172 
   9.588184   10.996498   12.849521 
   9.736724   12.618719   10.821942 
   7.673890   10.962168   14.477067 
   7.529175   12.713049   16.237575 
   9.762987   10.563422   16.110045 
   9.637041   12.813072   14.721485 
   7.749527   10.902648   17.912952 
   7.611610   12.493376   19.913468 
   9.783990   11.128489   19.853793 
   9.671663   12.569237   17.730007 
   7.718307   14.478011   21.666534 
   7.616231   16.341491    1.712202 
   9.845008   14.791364    1.725912 
   9.658133   16.333342   21.418047 
   7.706296   14.489365    3.647146 
   7.629348   16.241243    5.503182 
   9.490164   14.308110    5.518883 
   9.655115   16.277790    3.832836 
   7.652510   14.387932    7.373523 
   7.608941   16.254463    9.257882 
   9.609333   14.527224    9.290473 
   9.542857   16.152139    7.292890 
   7.647424   14.461978   10.867585 
   7.726400   16.223309   12.731290 
   9.567834   14.285188   12.685605 
   9.803503   16.314969   11.038195 
   7.567105   14.528639   14.492818 
   7.639897   16.346089   16.352736 
   9.476721   14.781166   16.323779 
   9.818335   16.250913   14.183387 
   7.765653   14.298920   18.272095 
   7.561720   16.255375   19.830526 
   9.898559   14.050986   19.861033 
   9.846118   16.110704   18.386518 
   7.697962   18.219643   21.647890 
   7.885464   19.777049    1.941430 
   9.830410   17.746988    1.894376 
   9.810343   19.745830    0.228323 
   7.758897   17.989449    3.724677 
   7.724706   19.921833    5.527572 
   9.607255   18.038240    5.523890 
   9.848300   19.735390    3.640143 
   7.686770   18.072136    7.445422 
   7.806222   19.949421    9.181855 
   9.768425   18.102445    9.025349 
   9.569593   19.879007    7.319634 
   7.792199   18.063863   10.921791 
   7.661389   19.888169   12.677420 
   9.571942   18.251780   12.671333 
   9.832169   19.891679   10.787954 
   7.710077   18.098249   14.666793 
   7.519521   20.020214   16.419595 
   9.752841   17.837720   16.339846 
   9.581825   19.866547   14.795230 
   7.668119   18.047371   18.135710 
   7.670786   19.862582   19.855034 
   9.742778   18.255316   19.797022 
   9.646506   19.902720   17.855065 
 134.278133    6.606966    9.641560 
  37.838146   17.248124   11.033401 
  17.834131    8.785912   10.677062 
  12.953343   16.070236    4.818680 
  65.420047   21.427242   17.852036 
  12.957184    8.282067   21.224143 
  43.416888    8.054020    7.695478 
  13.219632    3.929705    2.524108 
  31.179682   12.643047    7.348185 
  19.252929   18.234465    4.990554 
  43.366050    4.731043    4.980676 
  12.856929   19.549685    7.603953 
  15.311109    8.362996   13.179604 
  26.096128    9.486464    8.966159 
  15.797959    6.560625    1.001868 
  43.163194    3.196161   14.686546 
  33.481373   14.775932   17.407915 
  20.570452    1.596407   12.394120 
  25.268713   15.321361   19.792468 
  12.906223   17.430746   18.270011 
  18.136322    3.531822   14.588743 
 104.848017    6.137217   20.231337 
  34.235202    8.464985   11.816794 
  61.703391   11.459071   20.381714 
  47.201819   17.672946   18.713454 
 154.476562   15.194602    7.055049 
  32.026393   21.689549    8.498546 
 123.649374    0.934846    6.141055 
  22.379322   13.254840   16.756191 
  41.392938    5.726948   13.030083 
  35.530044   13.450867    2.173734 
  22.428367   10.450092   20.452356 
  26.666237   18.096111   16.987491 
  38.035625    5.197206    2.307338 
  44.326468   10.654054   10.489146 
  32.234443    6.538202   18.691711 
  15.246687   20.724178   15.933284 
  12.980678   21.431504   10.640919 
  23.858832    0.920100   12.990102 
  38.530878   10.900753   15.856096 
  18.655408   19.399377   20.189173 
  12.828420   11.247233   15.268460 
  51.856568    5.922637    1.500157 
  15.996595   13.714478    0.784101 
  43.673287    4.178049   19.524045 
  31.195507    4.140021   16.176720 
  17.376025    2.386742    9.862685 
 103.684835    2.909224   13.670890 
  36.691080    3.216719    9.552916 
 157.529750   14.053878   11.823298 
 157.094626    4.183546    1.422315 
  27.047304    5.221883   18.188893 
 157.893239   14.005858    1.107495 
  12.793486   19.326099   13.870628 
  48.150114    5.754552   17.860878 
  45.509683   13.858793    3.019598 
  45.538686   16.936893    4.947438 
  32.843514    1.090489   15.656260 
 157.467244   11.596538    3.455330 
 157.960144    7.279923    9.122202 
  22.730134   11.762683    9.658867 
  37.701150   19.195186   17.207685 
  52.678751   17.520509    3.736457 
 155.089341   13.609258    9.766061 
  27.550781   11.034036   16.175243 
  93.313341    6.555685   20.693232 
  12.757234   12.025595    9.010051 
 153.601461   15.442934   12.249566 
  19.418998   18.817039   14.704520 
  28.120120   11.474982   12.911364 
 103.618675    0.298617    7.785783 
 152.549873   16.657073    5.038691 
  52.077724   15.267188    0.215350 
  24.576265   20.875188   16.323188 
  18.207519    5.028484    6.819290 
 103.572520    3.051292   21.110987 
  50.446853   10.383703   11.946849 
  26.768662    8.293469    4.085102 
  44.142310    2.067098    7.526678 
  12.979370   15.539467    7.793703 
  51.499128   12.334023   17.022250 
  52.031900   16.795075   14.775517 
  34.014868   10.900104    8.834613 
  23.222754   14.627466    7.995760 
  22.940488    3.939004   11.213917 
  36.788697    5.624711   11.933875 
  31.807472   20.099987    3.703163 
  39.471806   15.940894   16.951731 
  40.667571   13.645655   21.337681 
  49.336049    9.344037   20.666723 
  43.035561   20.361234   15.122189 
  16.033567    1.428073   12.643854 
  27.133264   11.218772    2.908391 
 157.560567    8.233281    5.107697 
  38.258998   19.255417    6.132068 
  44.411779    7.259856   11.854383 
  49.325922   17.782734    5.585323 
  12.838953    0.830051   14.305077 
  22.293010    0.856414    9.118020 
  27.715787    1.693232    9.318022 
  21.270480    5.338855    8.407023 
  13.118671    7.519942    2.690169 
  33.462661    9.182959    2.489072 
  24.825964    5.771655    2.837103 
  29.793409    7.783137   11.424732 
  15.884292   16.328202    3.377102 
  13.241407   20.345478    2.927751 
  19.357958   20.745383    7.773576 
  34.538578   20.482388    6.050244 
 153.571527    4.848056   21.556709 
  48.044052   16.261641    2.718885 
 157.555795    8.117971    1.165116 
  29.983745   14.762912   10.440942 
  39.293703   18.013453   20.778976 
  19.999032    8.250154    8.194043 
  19.297407    5.378363   17.830488 
 110.451841   20.440000   11.967876 
  16.089611   15.855636   17.294167 
  22.951731   10.703445    3.938448 
  13.229579    2.593165   11.648497 
  37.134454   13.387042   20.756255 
  15.677841    1.874476   17.166127 
  27.374400    3.630754   21.569454 
  27.154081    0.084785   14.250440 
 107.441147    5.506199    9.856603 
 116.508301   14.756567   16.788771 
  41.941523   21.652632   12.019133 
  12.987121    5.055455    5.396029 
  12.907384   10.783231   11.985668 
  36.375280   12.834697   17.573286 
 157.695268   14.396869   15.576159 
 136.948648    4.590799   11.942950 
  12.856047    3.668805   18.408625 
 157.666114   13.019126    6.677190 
  39.873558   21.198810   20.242553 
  23.256579    4.384470   20.823576 
  56.049877    6.833955    6.182667 
  15.811383    5.890996   16.480209 
  40.192072   16.343271    8.576014 
  42.523791    8.639215    3.634183 
  44.966845   13.206610   15.115433 
  44.054183   10.254281   13.754115 
  40.803846    9.416698    1.075809 
  35.550239    6.546593    3.985165 
  42.795549    8.668626   19.067416 
  23.271601   11.152583   13.950587 
  12.950857    4.973847   21.447830 
  16.751922    4.708265    3.913434 
  46.474735    4.052629    2.886818 
  47.152088    3.026089    6.185755 
  37.640393   11.537081    8.226242 
  32.728004    4.942179   10.374242 
 157.570312   18.917012    5.243201 
  39.356239    2.926607   21.674534 
  31.887957   18.983579   18.930777 
 157.239756   18.569340    1.919469 
  35.089646   21.381642    1.230213 
 128.665760   20.728391    6.023634 
  64.320718   19.306065   15.188526 
  21.740488   14.053251   20.340804 
  40.421798    2.967260    6.512964 
  53.602882    1.132770   16.032118 
 157.362501   10.649977   21.244851 
  41.662005   12.061307    8.607627 
  16.112906   10.203078    1.810228 
  36.240647   16.785807   19.868411 
 157.959926   17.806864   16.341007 
  21.289637    1.441869   15.940245 
  26.304918    4.927187    7.532654 
  35.552975   12.351370   11.927692 
  19.172221   12.823001    9.409579 
  43.088229    5.438678    0.990092 
  32.756280    8.147291    5.636725 
  36.554459    2.342278   17.027691 
  49.781977    2.178656   20.802785 
 156.884908   21.419680   20.935988 
  16.119337    5.517883    9.641411 
  50.739056   20.449628    0.445423 
  40.770428    3.931895    2.928250 
  12.947843   14.047866    2.139155 
  36.163088    5.849563   20.316690 
 157.841462    6.934857   20.175717 
  21.664359   17.367165   18.406416 
  47.285430    9.121208   13.288329 
  36.496980    7.704172   17.539472 
  30.724506    1.449668    5.138493 
  28.364713   17.553748   10.366675 
  40.528165    6.530886   16.909036 
  39.712867   10.144838    6.163281 
  38.369699   19.458013    2.487024 
  39.810296    7.351751    7.890899 
  36.762798    7.757139   14.227238 
  26.302599    8.569920   19.834919 
  12.806876   10.642517   18.345646 
  12.830995   10.716338    3.383435 
  30.711556   19.835790   15.560533 
  25.686070   20.293068   10.243327 
  32.711294    1.108514   21.024636 
  17.720078    1.543215    4.436501 
  50.734115    5.999056   20.022774 
  42.213276    0.406856   17.966731 
  22.524674   20.584188   19.893135 
  29.142532   11.382985   10.164190 
  21.254722    6.843788   14.873934 
  41.545002   12.806430   17.221130 
 154.989754    2.951205   13.091368 
 156.461770   16.576707   13.795170 
  32.960647   18.510992    8.781312 
  25.825541   17.029234    8.422098 
  48.390728   20.808352   19.274871 
  49.051288   13.205156    4.670381 
  15.727916   20.119115   12.189233 
  15.887851    7.084666   19.381106 
  30.265061   18.589182    0.707774 
  39.704187    0.334953   15.337565 
  16.597548   19.984105    1.256783 
  48.718482   16.069374   15.234531 
  48.847791    9.881844   17.404897 
  20.755774   20.283071    1.953533 
  30.961985    3.456163   19.593498 
  12.945587    4.148985   14.675793 
  19.851606    5.316597   11.418747 
 153.777223    7.196237    7.605076 
  48.294487    9.757040    6.979784 
  41.976831    5.032732    8.568664 
  12.966346    7.377316   18.139116 
  22.652510   19.134517    4.481653 
  44.915811   10.601080   17.202534 
  39.222543   10.392928   18.997113 
  20.665335    1.275720   21.295683 
 157.906573    1.177125    7.471249 
  12.944885    1.814080    8.212795 
  88.761752   16.724952   20.075156 
  16.394564    7.974238    5.431171 
  47.919353   10.734835    1.716341 
 148.522494   14.490065   10.855875 
  38.872440    1.858464   12.739594 
  44.704212   10.530131    5.704429 
 118.029609   15.439909    7.592171 
  15.942465   16.617954   13.881948 
  24.858355   13.367913    4.778455 
  44.900784   20.865052   20.976722 
  15.563614   21.186227    8.392054 
  51.201614   12.136817   21.399310 
  24.516913    1.979970   19.080216 
  29.705774    4.391171    9.272836 
  52.513159    7.926067    9.885985 
  18.778671   13.048939   17.795836 
  13.209516    8.563774    9.005453 
  25.219802   17.159953    5.182232 
  18.995054    9.540847   17.929181 
  31.997739    3.037474    1.823315 
  52.260061   21.135307   18.747800 
 118.234505    6.971411   16.342290 
  12.861214    7.496405   14.864881 
  39.777822    3.229347   17.840534 
  33.066336   12.505087   15.079494 
 157.686888   11.276734   13.317057 
  46.519795   21.442979    6.315073 
  89.562224    2.006570    3.933682 
  34.398244   18.387683   16.591280 
  54.645705    8.050040   13.821214 
  67.604573   11.818658    9.180899 
  15.391589   17.888929   20.702295 
  38.372048   20.508853   11.600424 
  41.613873   18.426507   17.857719 
  45.108110   20.421912   11.836694 
  22.539869   18.847448    8.750068 
  12.813462   18.111262   10.544713 
  23.979854    1.362906    1.167221 
  18.780170   14.742670    6.386300 
 157.635667    2.816422   20.392406 
  29.100791   13.936638   14.928207 
  42.113249   21.259641    4.808342 
  75.720413   14.744697    1.418002 
  47.043312    1.819545   10.589197 
  21.476471   12.143196    6.848668 
  27.060743    7.940446   14.718238 
 114.686621   10.892318    3.152856 
  43.662865   13.391597   19.792853 
  47.312255   19.496467    8.842027 
  15.563676    4.745655   12.693134 
  35.596071    2.527770   20.799918 
  15.003690   10.556904    6.937727 
  30.207968    9.731359   14.906960 
 118.863234   18.654054   15.478561 
  17.177442    1.592230    0.597255 
  44.617437   15.591926   12.414320 
 121.227503    9.211702   13.540368 
  12.878066   15.031157   11.596062 
  32.180569   15.096970   21.116098 
 116.822333    3.389383   12.021670 
  18.708550    8.450353   21.666872 
  25.970006    2.962834   16.064834 
  13.188117   17.155129    1.488198 
  36.969265   15.336776    5.647826 
 157.771366    8.214604   13.394403 
  31.314123   11.962196    1.889921 
 157.582699   20.162853    8.983993 
  35.440055    3.227403    2.091554 
 157.750296   16.225018    7.671675 
 154.596932   14.987588   17.702168 
  55.803550   10.183320   18.543099 
  47.553503   13.741138   17.990256 
  42.908054   20.454644    8.193223 
  13.155395   18.205207   17.500171 
  22.824220    7.818547    5.178126 
 147.289954   15.434556    3.251622 
  46.873018    5.465087   21.508157 
  29.538365    7.606984   20.334315 
 137.428975   18.254999    9.257327 
  33.843371    3.404112   13.123963 
  50.882646    7.369476   15.375807 
  16.479064   17.935456    7.331076 
  18.214904    6.848215   14.097751 
 157.628387   17.281841   20.087353 
  31.997863    6.412716   13.534586 
  36.544409   21.352356   19.760050 
  15.331025    9.415574   16.356233 
  23.048367    4.472372   16.903728 
 153.633798    4.531314   18.105233 
  21.857374    7.445054   18.898398 
  13.171815    1.616272   21.190140 
  36.116049    0.912846    4.342941 
  52.405337    1.788177    1.656386 
  48.490558   20.199581   13.027549 
  25.167744   19.951897    6.870013 
  46.161829    1.194638   14.679835 
  49.660295    3.670426    9.992400 
 154.751517   18.623859   16.504707 
 157.538558   15.908247    4.135493 
  76.554194   14.317413    6.225573 
  24.642807    8.759755    1.081825 
  37.518953    9.424561   11.329246 
 134.604164   19.647622   10.114870 
  49.621873    6.249382    6.887721 
  18.656328    1.479889   18.477553 
  13.433244   12.632281    9.640032 
  20.379568    3.013844    3.129900 
  30.236602   17.708950    4.896485 
  45.744586    9.887669   20.498251 
  54.512346   12.557438    2.129815 
  33.763775    9.982236   20.263811 
  18.368071    0.144431   15.049349 
  57.898457    2.233563    2.033693 
  24.726089    2.272909    5.377936 
  34.798716    4.971116   15.779596 
  42.643299   16.493213   20.733845 
  36.185278   19.179538    9.222557 
  18.498043    4.771548   21.688676 
  28.800253   14.227111    0.203233 
  12.847327   14.458001   16.762233 
  38.398381   16.263081    2.662869 
  46.482388   13.038578   11.693389 
  32.715949    4.374014    5.564050 
  44.494992    6.687315   15.324560 
  27.376608    6.615905    0.924322 
  51.729701    8.700485    5.521203 
  20.227377   20.190616   11.449962 
  15.570189   10.582142   19.887218 
  25.106852   12.546857    0.720127 
  51.858029   10.419540    2.315452 
  22.214277   13.153485    1.721860 
  31.835852   19.829859   11.478178 
  29.256524   16.834350   19.712095 
  88.973026   19.525346    0.521572 
  39.923874   14.368370   14.437769 
  34.123016   14.106581    7.992546 
  20.990371    8.588445    2.021845 
 157.769906    1.004378   11.356816 
  15.669126   16.774248   10.795955 
 155.393358    5.983410   14.850460 
 109.219002   17.285761   20.149432 