System 
          1
 160.844879    0.000000    0.000000 
   0.000000   21.689760    0.000000 
   0.000000    0.000000   21.689760 
  Cu  C
  432  521
Cartesian  configuration=        1
   0.000000    0.000000    0.000000 
   0.000000    1.807473    1.807473 
   1.957247    0.085442    1.807736 
   1.979646    1.693491   21.577468 
   0.000000    0.000000    3.614967 
   0.000000    1.807473    5.422440 
   1.967944    0.031493    5.400839 
   1.997909    1.848101    3.561964 
   0.000000    0.000000    7.229913 
   0.000000    1.807473    9.037407 
   1.985622    0.055043    8.939779 
   1.952264    1.818462    7.140843 
   0.000000    0.000000   10.844880 
   0.000000    1.807473   12.652353 
   2.005448   21.629126   12.625365 
   1.970225    1.760860   10.916125 
   0.000000    0.000000   14.459847 
   0.000000    1.807473   16.267320 
   2.089853    0.053966   16.309510 
   1.910080    1.854004   14.505056 
   0.000000    0.000000   18.074793 
   0.000000    1.807473   19.882287 
   1.968351   21.544064   19.827220 
   2.005163    1.768914   18.103484 
   0.000000    3.614967    0.000000 
   0.000000    5.422440    1.807473 
   1.993510    3.614921    1.628938 
   2.030013    5.411544    0.039374 
   0.000000    3.614967    3.614967 
   0.000000    5.422440    5.422440 
   1.990108    3.640176    5.447669 
   2.042014    5.362308    3.583350 
   0.000000    3.614967    7.229913 
   0.000000    5.422440    9.037407 
   1.989287    3.602883    9.088513 
   2.077950    5.384409    7.355904 
   0.000000    3.614967   10.844880 
   0.000000    5.422440   12.652353 
   2.001587    3.582019   12.646287 
   2.014354    5.554763   10.809568 
   0.000000    3.614967   14.459847 
   0.000000    5.422440   16.267320 
   1.955019    3.565870   16.381604 
   2.057644    5.259013   14.553663 
   0.000000    3.614967   18.074793 
   0.000000    5.422440   19.882287 
   2.064593    3.483052   19.938642 
   2.056744    5.463813   18.270731 
   0.000000    7.229913    0.000000 
   0.000000    9.037407    1.807473 
   2.079350    7.292215    1.879639 
   1.981330    9.099474   21.652010 
   0.000000    7.229913    3.614967 
   0.000000    9.037407    5.422440 
   2.029747    7.180409    5.521978 
   1.923278    9.107514    3.712325 
   0.000000    7.229913    7.229913 
   0.000000    9.037407    9.037407 
   2.056882    7.256581    9.071157 
   1.922827    9.056382    7.190517 
   0.000000    7.229913   10.844880 
   0.000000    9.037407   12.652353 
   1.978935    7.280140   12.661585 
   2.005173    9.076983   10.884206 
   0.000000    7.229913   14.459847 
   0.000000    9.037407   16.267320 
   2.021509    7.113009   16.403690 
   1.993456    8.965739   14.543985 
   0.000000    7.229913   18.074793 
   0.000000    9.037407   19.882287 
   1.864863    7.223132   19.910661 
   1.932242    9.074062   18.133002 
   0.000000   10.844880    0.000000 
   0.000000   12.652353    1.807473 
   2.014709   10.821665    1.864138 
   2.023065   12.708267    0.027484 
   0.000000   10.844880    3.614967 
   0.000000   12.652353    5.422440 
   2.021426   10.929683    5.491565 
   2.011114   12.643416    3.618782 
   0.000000   10.844880    7.229913 
   0.000000   12.652353    9.037407 
   2.058268   10.830065    9.136562 
   1.984290   12.716929    7.314880 
   0.000000   10.844880   10.844880 
   0.000000   12.652353   12.652353 
   2.059939   10.732500   12.735432 
   1.928507   12.654817   10.839121 
   0.000000   10.844880   14.459847 
   0.000000   12.652353   16.267320 
   1.970212   10.841763   16.245057 
   2.048867   12.656741   14.332813 
   0.000000   10.844880   18.074793 
   0.000000   12.652353   19.882287 
   1.965588   10.868691   19.913022 
   1.958715   12.629066   18.102755 
   0.000000   14.459847    0.000000 
   0.000000   16.267320    1.807473 
   1.968554   14.514469    1.813811 
   2.062737   16.289498    0.043896 
   0.000000   14.459847    3.614967 
   0.000000   16.267320    5.422440 
   2.021194   14.441353    5.436463 
   1.922101   16.215086    3.659025 
   0.000000   14.459847    7.229913 
   0.000000   16.267320    9.037407 
   1.960377   14.629114    9.061754 
   1.980347   16.266549    7.186576 
   0.000000   14.459847   10.844880 
   0.000000   16.267320   12.652353 
   1.940158   14.530537   12.494760 
   1.961777   16.382188   10.799528 
   0.000000   14.459847   14.459847 
   0.000000   16.267320   16.267320 
   1.986057   14.342630   16.166217 
   2.001390   16.312959   14.426772 
   0.000000   14.459847   18.074793 
   0.000000   16.267320   19.882287 
   2.000969   14.540150   19.911544 
   1.929267   16.187373   17.970218 
   0.000000   18.074793    0.000000 
   0.000000   19.882287    1.807473 
   2.068149   17.995795    1.860576 
   1.953102   19.895636    0.073903 
   0.000000   18.074793    3.614967 
   0.000000   19.882287    5.422440 
   2.109822   18.116000    5.466085 
   2.074976   19.967124    3.584098 
   0.000000   18.074793    7.229913 
   0.000000   19.882287    9.037407 
   2.005280   18.084111    8.910748 
   1.834872   19.914364    7.139145 
   0.000000   18.074793   10.844880 
   0.000000   19.882287   12.652353 
   1.969304   18.104031   12.653333 
   2.012922   19.868892   10.789526 
   0.000000   18.074793   14.459847 
   0.000000   19.882287   16.267320 
   2.061533   18.057473   16.265628 
   1.965364   19.967869   14.499167 
   0.000000   18.074793   18.074793 
   0.000000   19.882287   19.882287 
   1.961307   18.073413   19.844135 
   1.956276   19.851805   17.938996 
   3.919191   21.661726    0.029802 
   3.979265    1.707286    1.812697 
   5.884863   21.558641    1.876492 
   5.949494    1.774113    0.084367 
   3.946819   21.679408    3.601154 
   3.960989    1.786438    5.350493 
   5.866161    0.049021    5.276265 
   5.834514    1.828250    3.500113 
   3.745036   21.663050    7.247435 
   3.822153    1.851047    9.052596 
   5.731462    0.048667    8.972466 
   5.813698    1.753212    7.078248 
   3.908293   21.657474   10.805675 
   3.817552    1.852986   12.596465 
   5.727724   21.677461   12.552980 
   5.755173    1.880898   10.703147 
   3.763042    0.096357   14.393709 
   3.993506    1.832860   16.377353 
   5.737852   21.643158   16.291262 
   5.805452    1.790327   14.508958 
   3.899240   21.521167   18.069469 
   3.956113    1.774020   19.852987 
   5.740036   21.512318   19.942184 
   5.789244    1.707055   18.279009 
   3.832250    3.548659   21.663489 
   3.954713    5.509961    1.795903 
   5.933086    3.664163    1.711343 
   5.832312    5.430487    0.036819 
   3.836143    3.627741    3.468544 
   3.797223    5.341004    5.448683 
   5.756174    3.631457    5.276376 
   5.885750    5.393667    3.610537 
   3.835595    3.506921    7.237892 
   3.889314    5.396824    9.075957 
   5.750109    3.609698    9.004361 
   5.781775    5.383554    7.291194 
   3.875001    3.725822   10.877849 
   3.783822    5.345548   12.771676 
   5.714676    3.646504   12.627660 
   5.890534    5.434191   10.825243 
   3.976079    3.500233   14.469835 
   3.898176    5.392937   16.346010 
   5.833239    3.593095   16.276105 
   5.756892    5.381869   14.538943 
   3.971316    3.564200   18.103557 
   3.863732    5.466560   19.970238 
   5.860434    3.518388   19.957444 
   5.899333    5.275186   18.234120 
   3.864509    7.207971    0.050809 
   3.913203    8.948405    1.875317 
   5.880352    7.152998    1.866889 
   5.780908    8.980699    0.076892 
   3.869499    7.208867    3.756652 
   3.829466    9.078522    5.512612 
   5.802450    7.274438    5.367373 
   5.776595    9.057735    3.531927 
   3.909106    7.188699    7.174156 
   3.798100    8.913324    9.086247 
   5.845045    7.168602    8.938965 
   5.678375    9.055150    7.263790 
   3.859213    7.107992   10.954888 
   3.889311    8.959745   12.716435 
   5.718681    7.105348   12.708803 
   5.766841    8.940037   10.844683 
   3.823105    7.255277   14.433160 
   3.875683    9.041539   16.191433 
   5.663333    7.205330   16.363687 
   5.777976    8.880082   14.436122 
   3.873207    7.228543   18.061087 
   3.880649    9.009314   19.935539 
   5.744150    7.237882   19.956568 
   5.813854    9.059133   18.139814 
   3.942880   10.821190    0.121211 
   3.916759   12.718107    1.873864 
   5.816492   10.905987    1.847226 
   5.735302   12.749819   21.641403 
   3.771756   10.799786    3.637356 
   3.955561   12.619530    5.451870 
   5.755002   10.738050    5.311957 
   5.801333   12.583100    3.741082 
   3.864955   10.885511    7.390075 
   3.803771   12.703494    9.100940 
   5.737010   10.776758    9.108831 
   5.833104   12.597900    7.225797 
   3.929598   10.776115   10.895894 
   3.881072   12.681092   12.589792 
   5.751737   10.841937   12.713386 
   5.647925   12.555496   10.761947 
   3.901849   10.954623   14.405316 
   3.868841   12.673062   16.280592 
   5.781548   10.854344   16.293146 
   5.813510   12.684322   14.411538 
   3.803681   10.823067   17.999177 
   3.852636   12.645468   19.821397 
   5.693577   10.906549   19.953694 
   5.763471   12.674503   18.057637 
   3.878261   14.509127   21.585032 
   4.021020   16.208555    1.812460 
   5.808821   14.310930    1.903463 
   5.807384   16.238277    0.082591 
   3.913316   14.443493    3.738670 
   3.788967   16.157467    5.499114 
   5.726423   14.420550    5.494240 
   5.753767   16.204547    3.637199 
   3.877590   14.376197    7.262689 
   3.915604   16.301580    8.993110 
   5.781872   14.365569    8.998756 
   5.727708   16.223761    7.201136 
   3.888298   14.530061   10.767874 
   3.873562   16.258763   12.606291 
   5.836168   14.541089   12.517826 
   5.800921   16.230848   10.653680 
   3.846958   14.409780   14.331947 
   3.859417   16.201783   16.158405 
   5.808411   14.533319   16.217802 
   5.672921   16.334725   14.298553 
   3.912724   14.535378   17.960024 
   3.914535   16.331083   19.785258 
   5.703486   14.553939   19.839780 
   5.750053   16.325421   17.977933 
   3.851430   18.040267   21.566690 
   3.915736   19.847972    1.798911 
   5.725461   17.978207    1.851045 
   5.796128   19.716467   -0.006019 
   4.003673   17.963982    3.643278 
   3.912386   19.956520    5.342448 
   5.780640   17.998264    5.533023 
   5.755709   19.728630    3.653252 
   4.009785   18.136687    7.290841 
   3.934943   19.889226    9.011638 
   5.876543   18.149702    9.012691 
   5.779668   19.919266    7.167012 
   3.871218   18.078341   10.744220 
   3.842260   19.878962   12.616521 
   5.926024   18.069983   12.559726 
   5.806763   19.870596   10.865967 
   3.862651   18.082225   14.371862 
   3.975035   19.792788   16.194991 
   5.748647   17.967878   16.118712 
   5.669951   19.871484   14.391030 
   3.892413   18.092137   17.948670 
   3.897137   19.804062   19.862468 
   5.902855   18.009202   19.809130 
   5.889047   19.837688   18.061617 
   7.768206   21.491326    0.169479 
   7.845166    1.845210    1.914241 
   9.749054    0.037949    1.951065 
   9.821270    1.689943   21.606761 
   7.907199   21.657870    3.654425 
   7.834029    1.985025    5.260900 
   9.821902   21.591113    5.467305 
   9.830296    1.927362    3.722075 
   7.769682    0.078390    7.071397 
   7.670449    1.930022    9.056658 
   9.521673    0.341177    8.875850 
   9.740225    1.848717    6.912504 
   7.717157    0.097290   10.902635 
   7.520804    1.882086   12.623403 
   9.609778   21.597343   12.860004 
   9.623206    1.817106   11.194457 
   7.631438    0.018459   14.515431 
   7.582698    1.840343   16.405418 
   9.610689    0.229693   16.300049 
   9.547070    1.996267   14.317208 
   7.816352   21.608197   18.175759 
   7.783966    1.692756   20.115847 
   9.757066   21.306694   20.007401 
   9.930172    1.489244   18.381474 
   7.804090    3.661616    0.109131 
   7.808053    5.510183    1.790388 
   9.933812    3.584710    1.667518 
   9.858345    5.382047    0.071750 
   7.925951    3.703031    3.578296 
   7.686342    5.349138    5.450107 
   9.784815    3.917744    5.480161 
  10.029345    5.461606    3.386731 
   7.680717    3.633191    7.197298 
   7.730168    5.386697    8.905296 
   9.769900    3.378002    9.170541 
   9.950316    5.235619    7.611862 
   7.734173    3.781797   10.793413 
   7.776189    5.508803   12.684474 
   9.896112    3.903449   12.565701 
   9.718601    5.651156   10.653331 
   7.826347    3.760764   14.490221 
   7.715938    5.421092   16.593648 
   9.665960    3.470865   16.539355 
   9.905531    5.284570   14.815380 
   7.771891    3.498797   18.251894 
   7.823787    5.367449   19.959464 
   9.788974    3.638197   19.881221 
   9.853428    5.363950   18.079772 
   7.689360    7.170866   21.643564 
   7.658209    9.013806    1.780586 
   9.621442    7.480159    1.682120 
   9.662081    9.314268   21.540086 
   7.772319    7.272885    3.654280 
   7.704464    8.996506    5.449931 
   9.858644    6.916070    5.562038 
   9.790211    8.886878    3.869478 
   7.811513    7.287507    7.252210 
   7.613343    9.035095    9.079952 
   9.821876    7.565171    8.966269 
   9.645190    9.227796    6.944755 
   7.669741    7.230951   10.828503 
   7.581151    8.940303   12.736965 
   9.682277    7.200653   12.736645 
   9.469521    8.930817   10.971838 
   7.673275    7.082466   14.615431 
   7.620723    9.086724   16.372509 
   9.654653    7.336279   16.249021 
   9.687817    9.240342   14.497428 
   7.711081    7.322402   18.179046 
   7.660640    9.229905   19.986025 
   9.758210    7.214484   20.011463 
   9.696001    9.050204   18.177138 
   7.541250   11.014441    0.167104 
   7.738895   12.794990    1.765552 
   9.662766   10.738087    2.046488 
   9.617678   12.496280    0.238826 
   7.686316   10.854814    3.544342 
   7.608401   12.559079    5.451432 
   9.692162   11.002938    5.280752 
   9.509130   12.795504    3.602714 
   7.639638   10.780624    7.259725 
   7.539387   12.541388    9.096083 
   9.698561   10.597746    9.272879 
   9.542773   12.468229    7.426156 
   7.628903   10.806887   11.002158 
   7.692339   12.656866   12.572158 
   9.809730   10.946382   12.574054 
   9.582452   12.742846   10.809004 
   7.704485   10.864918   14.477022 
   7.514801   12.739635   16.211407 
   9.723647   10.938466   16.412181 
   9.481743   12.633378   14.585135 
   7.561253   10.987159   18.136177 
   7.559455   12.685561   19.917564 
   9.589842   11.170585   19.542302 
   9.700610   13.025607   17.798974 
   7.641075   14.539353   21.695351 
   7.642171   16.271763    1.895247 
   9.709855   14.645705    1.738207 
   9.855737   16.329922   21.388440 
   7.655214   14.470557    3.809509 
   7.558299   16.266236    5.503506 
   9.669243   14.264791    5.720520 
   9.778125   16.181012    3.977089 
   7.692822   14.459108    7.278474 
   7.689229   16.228653    9.076444 
   9.630474   14.465741    8.973446 
   9.596943   16.427774    7.149278 
   7.595386   14.445477   10.743909 
   7.630775   16.319888   12.511328 
   9.660659   14.314667   12.752950 
   9.672734   16.230613   11.009365 
   7.682655   14.489539   14.457469 
   7.629042   16.238655   16.138372 
   9.591820   14.626945   15.984012 
   9.737086   16.459168   14.154982 
   7.629956   14.458165   18.108431 
   7.686981   16.395497   19.840122 
   9.598310   14.224647   20.007183 
   9.699694   16.033370   18.160875 
   7.707215   17.998801    0.016404 
   7.668206   19.749993    1.976241 
   9.798231   17.804333    1.840018 
   9.826125   19.571274    0.113626 
   7.731162   17.901725    3.718310 
   7.651689   19.872629    5.318261 
   9.648654   18.142949    5.486267 
   9.711689   19.724300    3.609486 
   7.654074   18.180952    7.269492 
   7.605280   20.025741    8.953490 
   9.835192   18.073782    9.171666 
   9.598990   19.936928    7.514343 
   7.796039   18.142088   10.772106 
   7.632834   19.968453   12.672790 
   9.767118   18.438865   12.475382 
   9.726733   20.249077   10.633407 
   7.784597   18.118605   14.373197 
   7.656964   19.962843   16.176752 
   9.666723   17.857131   16.328086 
   9.734811   19.726394   14.681855 
   7.688861   18.145223   17.934976 
   7.645547   19.755183   19.949173 
   9.796625   18.166347   19.574518 
   9.702284   19.863196   17.742095 
  64.370628   15.585900   20.049511 
  23.853673    7.776239    7.085576 
  27.092414   19.673895   19.694124 
  12.535416   15.929572    8.863020 
  25.625586    5.325856    7.483308 
  19.483672   10.218720   20.847999 
  15.313138    6.434442   14.173698 
  42.929956    4.105431   16.188182 
  57.718934    0.088725   18.360269 
  34.006961    8.669863    7.098008 
  39.018562   12.671480   12.434476 
  46.923846    6.601032   18.747937 
  16.129146    3.766566   12.319848 
  49.687055    6.771696    9.758563 
  47.357896   18.005792   18.541785 
  55.668287    7.671154    3.551018 
  19.619791   10.069807    2.791253 
  13.365363    2.951566   18.213354 
  32.121497   13.024728    8.837095 
  42.773868    1.066945    3.555947 
  16.356545    9.127971    3.279393 
  35.098004    4.565207    4.001062 
  44.154525    6.406104    7.985216 
  49.530166   13.866906    0.988962 
  31.592862    7.486531   12.089053 
  29.848018    0.099294    5.392679 
  30.466954   20.902493   14.147599 
  16.494738   14.115992   11.542438 
  46.413941    4.594954   15.183406 
  19.029086   18.550075   13.567132 
  55.187137   18.865184   11.630377 
  38.748165   21.541735    8.693414 
  20.247551   13.708137   11.382180 
  36.147740    7.186369    9.885782 
  47.270706   19.831917    8.648967 
  22.795930    7.312381    2.205840 
  43.780145   16.437249    1.160191 
  33.155378   14.121659   19.823768 
  21.758892   17.941140    6.786114 
  36.745612    1.581610    2.706894 
  16.743345   20.593194    5.463462 
  30.144676   19.645836   21.197955 
  38.456788    8.658900   12.219347 
  49.786368   19.114731    0.589080 
  16.297495   19.161675    1.842016 
  29.206840   18.717936    6.371437 
  12.800029   15.376907   19.585911 
  50.377566   13.621702   11.052379 
  19.401162   18.787700    4.616368 
  56.162127   10.191307   16.256195 
  38.199185    7.007115    3.523375 
  13.496892   15.747223    1.436641 
  41.401484   10.214658   13.490687 
  48.228823    1.317973    6.182874 
  48.775303   10.401118   21.114233 
  36.561721   19.109578   12.553086 
  22.046814   17.702043   16.826812 
  16.204374    0.770177   13.611508 
  15.617437   20.191719    9.116021 
  26.632829   10.523951    6.344866 
  60.421461   10.252783    6.910188 
  35.706581    4.874152    7.441229 
  59.395667   17.156529   15.724041 
  61.752600   20.246738    4.326411 
  27.607101   20.462638   12.421766 
  15.900399    8.313822    0.119821 
  52.210292    2.230728   15.230655 
  34.972971   20.676739   17.357048 
  41.854104    8.717009    6.138914 
  22.202316   17.774872    2.412432 
  54.768201    3.054777   18.027508 
  60.331664   14.521415    9.395289 
  46.187936   21.523454    2.612890 
  55.501627   14.475502    2.469666 
  58.987325    7.415118    4.968360 
  58.001830    0.473436    4.330616 
  52.479431    8.768474    4.232724 
  12.460087   13.017071    2.528056 
  56.444890    3.408522    8.492689 
  27.388447   11.793074    1.469912 
  47.495900   20.939825   17.092267 
  25.695052   12.751115   18.891959 
  40.684603    1.575265   16.760766 
  47.921561   11.121287   18.228380 
  35.255919   18.675587    7.398789 
  17.275289   15.595571    3.089002 
  28.140781   12.468529   13.863484 
  25.258193    6.414727   21.374603 
  24.054445   13.351559   14.919909 
  48.597155    2.460438   16.750552 
  32.693805   12.528722   15.554575 
  40.767011    9.594765   10.128392 
  49.957860    3.968455    3.724786 
  44.352597   21.107587    7.131900 
  57.723092   13.615123    6.666393 
  16.265234   18.252431   11.909612 
  19.212142    5.899692    2.014595 
  52.406196    1.490088    6.033522 
  22.116861    0.388450   18.178278 
  46.971460    3.221979   11.946482 
  27.876206   17.686757    9.986400 
  24.176475   21.252216    9.969497 
  27.383578    6.838673    4.821121 
  33.544017   20.908545   12.906295 
  24.760470   17.042956    5.401903 
  36.972651    9.604199    6.815579 
  29.777836    9.737566    3.346896 
  30.298942   19.031031    3.089537 
  49.661628   10.450382    2.822081 
  36.819932    8.210410    0.712842 
  55.968667    7.111131   19.145096 
  35.976086    1.074564    7.514784 
  38.429448    3.437223   19.361311 
  33.082332   13.112966    3.760499 
  58.274593   11.369495    2.372080 
  38.315652   18.210115   20.189822 
  48.354576    7.319486    1.928050 
  49.686731    5.017408   13.238916 
  27.773545    5.479083   10.440289 
  12.951979   18.517658    3.144887 
  38.261600   12.564431    8.838318 
  50.958848    4.466005    6.934125 
  46.165447    1.081591   21.142788 
  17.179594    3.205407   19.335909 
  31.650871   21.060405    9.197261 
  54.000506   17.378897    0.908159 
  41.547829   14.269677   10.899836 
  43.322728   21.056159   19.026679 
  61.448822    2.499819    7.185933 
  47.113623   13.376563   11.766850 
  21.185082   12.985880    1.721415 
  33.832861   13.550103   12.149550 
  13.653327    6.099130    4.973842 
  15.763224   15.463802   17.674884 
  24.093872   11.599685    1.285956 
  12.964005   15.544830    5.115648 
  29.489187   18.096385   16.014234 
  12.714283   18.615009    6.838437 
  32.266579    2.326759   11.870410 
  29.217519   14.481803   10.917015 
  50.446505   18.967325   11.517057 
  17.621209   12.995541   15.875900 
  27.991562   13.139233    4.497056 
  22.282165   15.151126   21.349158 
  21.724595   14.738624    4.446554 
  41.021562    9.201232    2.743814 
  12.936835   19.041050   14.065194 
  15.874488    7.444550    7.276997 
  55.351247   10.936703    3.704246 
  28.156578    3.784469    5.895073 
  44.286493   12.297640    9.960751 
  18.644258    8.581730    8.392742 
  13.170246   21.296815   19.936226 
  42.077016    3.925831    7.733431 
  36.631130   19.465925    1.462297 
  48.353734    7.546325   15.701686 
  40.835695   19.737431    6.168780 
  37.659364   19.664749    5.071567 
  60.188811   20.933216   20.680704 
  32.521497    1.591868   15.430789 
  47.643338    2.607330    1.805455 
  31.379475   15.295038    0.623286 
  33.761358   17.516309    1.878419 
  50.721250    8.682958   18.247089 
  47.062520   12.056340    1.971143 
  39.166725   16.032510    5.306584 
  12.814190    6.120062   12.128743 
  16.087420    5.080584    0.398475 
  17.361412    4.256266    5.927485 
  36.235970   10.761568   19.199710 
  20.339379   10.759172   10.105117 
  44.764326    1.589769   14.839186 
  27.878435    4.447998   20.302532 
  15.552232   14.432546    8.039264 
  57.050319    6.028551   12.351640 
  34.405924   15.238160   16.584030 
  12.931326    0.610621   12.687159 
  50.800176   16.460689    2.962870 
  33.031604    4.916473   13.921584 
  23.595299    9.817742   16.086970 
  36.169159   11.937301   15.419915 
  52.292695   19.954126   19.751923 
  12.938514    9.190355   16.526281 
  56.034778    6.685550    9.417232 
  23.403679    7.577872   13.093630 
  52.809635   14.632771   16.360707 
  49.152173   11.529231   14.506644 
  38.347307   14.718835   16.917157 
  19.485093    0.533758    2.875386 
  39.788516    5.600913   16.599662 
  41.860478    5.395211    4.440143 
  55.814682   13.090705   14.809136 
  13.111963   12.502009   21.187665 
  12.947825   18.525293   21.413929 
  13.171161    3.394649   14.270091 
  60.190651   10.240999   15.353762 
  53.913896   21.061453   16.453494 
  48.148920   17.294451   15.023511 
  16.398502    6.930287   18.075042 
  22.670936    6.715199   18.757310 
  52.319818   12.791950    4.624986 
  12.907573    9.740040    1.938331 
  26.943245    8.579714    1.932196 
  27.460415    6.750822   13.186893 
  12.797486    0.518685    8.298744 
  64.902886   21.696323   13.060959 
  43.865241    5.234763   19.919264 
  48.637722   16.389253    9.492390 
  32.559334   20.772223    1.439136 
  38.764488    3.682403    1.390458 
  25.673869   20.174188   16.120745 
  25.577030    2.489913    9.706361 
  15.831349    7.336804   10.940101 
  63.498261    6.623900   10.788281 
  60.539801    9.194563   19.865384 
  45.571309   18.794267    4.656483 
  50.473892   10.346833    9.940195 
  43.162414   11.907057    3.578298 
  20.553910   11.227750   13.966137 
  63.016820   11.939772    3.786627 
  45.575745    2.357019   17.929832 
  39.340130   21.102462   12.363647 
  50.681361    4.947780   17.518091 
  27.769194   16.058770   13.652261 
  31.417782   11.493117    0.236296 
  18.360158   18.458851    9.377477 
  34.833893    4.360287   10.771331 
  53.321821    5.409777    2.673255 
  38.483903    6.606385    7.191140 
  18.960107   12.878505    4.747740 
  22.424066   14.151185   17.858276 
  12.807472   12.820446    7.142631 
  27.796622   12.149897    9.047961 
  60.235520   20.480078   16.511701 
  33.091054   15.643456    7.167567 
  45.009537    8.890841    4.555533 
  53.933074    6.167908   16.759998 
  60.569681   14.159196    3.612042 
  12.887392    6.088797   16.676359 
  13.096957    6.242130   19.879332 
  40.681613   13.239604   19.788621 
  57.702814   11.688170   19.596609 
  13.322572   13.139827   10.484311 
  23.933526   12.505929    5.125876 
  25.135919    3.534752   18.416894 
  45.958539    5.491523    0.856725 
  48.093776   13.289940    8.120304 
  35.634014   11.313031    1.107279 
  46.373145   18.492251    0.981244 
  54.832619   17.533843   18.482109 
  24.481197    4.526214   13.690726 
  34.818540   20.568426   10.136894 
  15.968015   12.274938    1.573989 
  21.989358    5.080639   15.719309 
  12.825444    3.060070   10.600218 
  26.337227    9.724898   13.161522 
  40.599570   13.845275    2.207460 
  30.349707   11.313769   11.541435 
  69.806363    0.786076   16.955307 
  29.100068   15.277707    7.784712 
  24.649685   14.876361    2.767849 
  53.873275    6.031407    6.489734 
  50.791027    2.568834    0.551792 
  12.852998   12.722133   14.335673 
  36.471417    2.149525   16.692052 
  38.726139   17.836273   10.050694 
  23.314726   11.349879   12.030701 
  49.193027    0.936820   13.122949 
  44.200633    8.942272   11.000947 
  36.663686   14.072703   20.830409 
  12.958506   19.050876   10.598590 
  23.120444   18.204378   11.343295 
  34.398547    8.473721   17.478501 
  59.672819   21.206508   12.712194 
  38.024261    4.141897   13.224556 
  44.920643    8.490426   16.865714 
  60.896258   11.889254   18.236768 
  49.120443    0.107098   20.191512 
  21.916978   20.204365   13.825925 
  51.345072   19.779656    7.621193 
  28.426186   11.459670   19.741876 
  52.793259    7.605163    9.266853 
  24.362593    9.489996    4.100006 
  12.873467    6.268568    1.600348 
  18.495636    1.113188   10.988150 
  29.127721    1.985377   10.200651 
  15.888106   10.041496   15.705822 
  35.131897    2.468321   13.284269 
  45.778393   15.660113    3.508834 
  52.564643   12.215342   13.454705 
  63.151948    1.407576   18.146624 
  66.852497   18.570279   18.908016 
  32.366582    4.318250    6.143337 
  21.931492   21.096713    5.257100 
  43.326414   12.479482    0.382226 
  45.580030   18.610865   12.795807 
  30.047840   10.147138    7.020430 
  23.030090    0.632967    0.768453 
  57.039428    6.583085   15.513482 
  55.396651   16.785759   14.396729 
  20.027604   11.958463   17.445875 
  15.523181    2.503889    9.031558 
  45.006643   10.428175   19.690491 
  26.129346   20.057323    2.196606 
  50.597768   13.429114   18.797763 
  43.335123    1.469097    4.430157 
  50.471865    5.989194   20.867286 
  16.518035   10.807802   11.890632 
  21.175880   10.099139    5.782909 
  21.032408   20.921503    9.427322 
  30.039382    9.706021   15.169571 
  44.835769   15.380675   13.084700 
  33.938321    1.096969    4.200640 
  45.055399   11.303644   14.243897 
  19.184000    5.949300   19.978589 
  26.364204    9.070827    9.672889 
  25.769101   14.201173    7.392830 
  34.858225   16.960893   19.349071 
  25.647292   17.674847   21.559322 
  53.725037   10.561349    6.789096 
  13.136562    0.104379    4.865357 
  53.545967    4.380575   20.771068 
  47.972250    8.380117   12.260491 
  53.794771   13.268648   20.374410 
  64.438900   11.969329   15.506687 
  56.412561    1.008911   10.662669 
  42.138315    1.154809    9.421352 
  59.064912   12.280310   13.161555 
  57.186933   19.881725    1.444117 
  21.929601   16.057042   13.187004 
  44.176284    8.381016    0.503919 
  16.129144   19.271465   19.743600 
  26.887243   20.610068    8.678780 
  12.965170    9.278681    6.049876 
  29.679061    7.501733   21.617173 
  16.165734   11.403676   19.484461 
  26.835679    4.295692    2.374658 
  52.755080    3.205039   15.213373 
  42.483715   21.417315   13.292003 
  35.392250   12.466494    6.225813 
  28.174134    1.470645    2.413643 
  57.964426   18.494157   19.789452 
  31.330977   11.139357   18.193248 
  32.765098    7.690564   20.508551 
  55.187624    0.857024   20.701144 
  42.977981   19.531543   10.171507 
  39.472888    6.609586   19.900911 
  27.690780   16.531861    3.484377 
  60.499754    6.815628   13.756790 
  31.165125   16.688626   18.811943 
  24.739922   14.527696   11.317596 
  57.453636   11.305334    9.228222 
  13.144192   21.605261    1.517759 
  59.026136    5.422033    8.014893 
  18.959593    2.737622    0.899655 
  27.394087    6.178177   16.445394 
  32.281534    5.766070    9.013928 
  55.877002    0.143662    6.671783 
  51.998599   16.518487   10.131547 
  54.089326   14.049061    7.008837 
  19.549515   19.692568   16.527779 
  41.211461   16.349641    8.247013 
  37.378037   18.286351   16.522483 
  28.120953   15.080844   21.332235 
  19.172579    0.284861   20.286583 
  37.851283   10.433301    3.487298 
  12.897509    3.305086   21.293494 
  47.951518   16.825233    6.030437 
  53.480304    5.613951   13.327886 
  13.197641    6.185780    8.785345 
  36.667299   15.327876    9.531825 
  37.520505   16.022982   13.874742 
  46.130236    8.930505    7.587742 