System 
          1
 160.844879    0.000000    0.000000 
   0.000000   21.689760    0.000000 
   0.000000    0.000000   21.689760 
  Cu  C
  432  521
Cartesian  configuration=        49670
   0.000000    0.000000    0.000000 
   0.000000    1.807473    1.807473 
   2.036626   21.685923    1.827386 
   2.006069    1.814417    0.077848 
   0.000000    0.000000    3.614967 
   0.000000    1.807473    5.422440 
   1.923642    0.061672    5.540830 
   1.947886    1.744944    3.692029 
   0.000000    0.000000    7.229913 
   0.000000    1.807473    9.037407 
   1.985712   21.558448    8.965854 
   2.009689    1.863799    7.359875 
   0.000000    0.000000   10.844880 
   0.000000    1.807473   12.652353 
   1.960273    0.023699   12.717923 
   2.073376    1.662908   10.777428 
   0.000000    0.000000   14.459847 
   0.000000    1.807473   16.267320 
   2.013501   21.627753   16.261084 
   2.042917    1.835408   14.657931 
   0.000000    0.000000   18.074793 
   0.000000    1.807473   19.882287 
   2.030062   21.683124   20.047844 
   1.991567    1.827934   18.156734 
   0.000000    3.614967    0.000000 
   0.000000    5.422440    1.807473 
   2.052236    3.699184    1.778896 
   1.997253    5.510833    0.033335 
   0.000000    3.614967    3.614967 
   0.000000    5.422440    5.422440 
   1.974665    3.677684    5.339738 
   2.049629    5.481976    3.579814 
   0.000000    3.614967    7.229913 
   0.000000    5.422440    9.037407 
   1.971597    3.722511    9.022999 
   2.022326    5.551202    7.256174 
   0.000000    3.614967   10.844880 
   0.000000    5.422440   12.652353 
   1.992341    3.542374   12.574815 
   1.881686    5.498823   10.821652 
   0.000000    3.614967   14.459847 
   0.000000    5.422440   16.267320 
   2.131494    3.640728   16.313247 
   2.019767    5.430979   14.478368 
   0.000000    3.614967   18.074793 
   0.000000    5.422440   19.882287 
   1.939033    3.715537   19.883992 
   2.041336    5.448552   18.070828 
   0.000000    7.229913    0.000000 
   0.000000    9.037407    1.807473 
   2.000182    7.276005    1.801566 
   2.091604    9.014633   21.629193 
   0.000000    7.229913    3.614967 
   0.000000    9.037407    5.422440 
   2.037766    7.304037    5.488755 
   1.945076    9.096998    3.658055 
   0.000000    7.229913    7.229913 
   0.000000    9.037407    9.037407 
   1.960911    7.295703    9.131882 
   1.917382    9.032726    7.314719 
   0.000000    7.229913   10.844880 
   0.000000    9.037407   12.652353 
   2.074306    7.216992   12.736929 
   1.898353    9.116001   10.943702 
   0.000000    7.229913   14.459847 
   0.000000    9.037407   16.267320 
   2.076392    7.161166   16.160545 
   2.001677    9.080438   14.487012 
   0.000000    7.229913   18.074793 
   0.000000    9.037407   19.882287 
   1.909704    7.283182   19.888522 
   1.996005    8.921725   17.958788 
   0.000000   10.844880    0.000000 
   0.000000   12.652353    1.807473 
   1.962420   10.890893    1.627600 
   1.960590   12.565846   21.475859 
   0.000000   10.844880    3.614967 
   0.000000   12.652353    5.422440 
   1.919806   10.884265    5.469789 
   2.061092   12.610894    3.647356 
   0.000000   10.844880    7.229913 
   0.000000   12.652353    9.037407 
   2.044477   10.902834    9.136982 
   2.044900   12.599266    7.280830 
   0.000000   10.844880   10.844880 
   0.000000   12.652353   12.652353 
   2.089453   10.957228   12.738984 
   1.948008   12.746536   10.837865 
   0.000000   10.844880   14.459847 
   0.000000   12.652353   16.267320 
   2.027459   10.926129   16.200838 
   2.037413   12.705989   14.503236 
   0.000000   10.844880   18.074793 
   0.000000   12.652353   19.882287 
   1.933027   10.818833   19.754953 
   2.042874   12.674643   18.107455 
   0.000000   14.459847    0.000000 
   0.000000   16.267320    1.807473 
   2.030441   14.333335    1.826676 
   2.092852   16.294540    0.025227 
   0.000000   14.459847    3.614967 
   0.000000   16.267320    5.422440 
   2.078736   14.443972    5.572202 
   2.090518   16.108836    3.603384 
   0.000000   14.459847    7.229913 
   0.000000   16.267320    9.037407 
   2.099368   14.515047    8.984986 
   1.978454   16.272971    7.192806 
   0.000000   14.459847   10.844880 
   0.000000   16.267320   12.652353 
   1.975885   14.500874   12.601371 
   1.967758   16.318598   10.828646 
   0.000000   14.459847   14.459847 
   0.000000   16.267320   16.267320 
   2.007507   14.515693   16.307922 
   1.994163   16.276469   14.491070 
   0.000000   14.459847   18.074793 
   0.000000   16.267320   19.882287 
   1.947849   14.512229   19.894592 
   2.018265   16.255075   18.170721 
   0.000000   18.074793    0.000000 
   0.000000   19.882287    1.807473 
   2.013446   17.992701    1.936945 
   1.930966   19.807637    0.009656 
   0.000000   18.074793    3.614967 
   0.000000   19.882287    5.422440 
   1.998184   18.042569    5.413332 
   1.870783   19.912790    3.660093 
   0.000000   18.074793    7.229913 
   0.000000   19.882287    9.037407 
   2.023348   18.020482    9.075848 
   2.075260   19.720113    7.237816 
   0.000000   18.074793   10.844880 
   0.000000   19.882287   12.652353 
   2.066029   18.073153   12.629819 
   1.948292   20.002007   10.833389 
   0.000000   18.074793   14.459847 
   0.000000   19.882287   16.267320 
   2.136686   18.174140   16.396547 
   2.135344   19.825640   14.469626 
   0.000000   18.074793   18.074793 
   0.000000   19.882287   19.882287 
   1.968201   18.045002   19.990141 
   2.028773   19.916471   18.170365 
   3.866804   21.647477    0.158752 
   3.802266    1.855054    1.908303 
   5.788461    0.060754    1.946208 
   5.662102    1.922850    0.106219 
   3.856100   21.679908    3.698406 
   3.804543    1.863994    5.488987 
   5.802763    0.063507    5.411087 
   5.801388    1.961749    3.710013 
   3.903253   21.657308    7.249505 
   3.911995    1.780545    8.985957 
   5.868161   21.574394    8.829662 
   5.776839    1.894056    7.046793 
   3.993657   21.538857   10.738991 
   3.911431    1.736029   12.553400 
   5.901487   21.650929   12.599564 
   5.801196    1.636401   10.773537 
   3.954317    0.106873   14.428138 
   3.875905    1.766755   16.294793 
   5.701038    0.113730   16.387836 
   5.847936    1.750626   14.507071 
   3.814050    0.045257   18.179553 
   3.854274    1.843574   20.027206 
   5.683766    0.081705   20.008889 
   5.723639    1.781871   18.149858 
   3.872955    3.747464    0.100785 
   3.859023    5.545089    1.897286 
   5.760815    3.795444    1.777742 
   5.786597    5.492523    0.016011 
   3.924341    3.639313    3.708389 
   3.785253    5.452105    5.476336 
   5.812704    3.761931    5.524382 
   5.779873    5.463434    3.621413 
   3.916798    3.663653    7.320094 
   3.882229    5.415110    9.131800 
   5.902279    3.617226    9.098684 
   5.769627    5.622858    7.268423 
   3.867163    3.527205   10.806641 
   3.857771    5.319958   12.549013 
   5.860434    3.496726   12.566163 
   5.838816    5.356428   10.863759 
   4.014846    3.493336   14.470474 
   4.010348    5.376739   16.297096 
   5.790774    3.665547   16.324793 
   5.810505    5.376465   14.367984 
   3.926211    3.609782   18.196616 
   3.938882    5.540640   19.875235 
   5.774006    3.648664   19.869974 
   5.891149    5.384388   18.117486 
   3.881420    7.178960    0.027294 
   3.959403    9.061520    1.764441 
   5.743083    7.287006    1.862214 
   5.699965    8.928148   21.681961 
   3.889986    7.247073    3.748663 
   3.874697    9.123835    5.369917 
   5.710918    7.233962    5.496561 
   5.804031    9.102424    3.657334 
   3.861719    7.357945    7.309426 
   3.911644    9.105184    9.156451 
   5.715849    7.193193    9.097744 
   5.818034    9.032359    7.275203 
   3.933087    7.278583   10.950486 
   3.954232    9.096003   12.649289 
   5.822776    7.335050   12.685163 
   5.738068    9.130825   10.858662 
   4.003184    7.177434   14.373455 
   3.920965    8.980419   16.190944 
   5.881033    7.078591   16.197782 
   5.683123    9.030836   14.466232 
   3.905403    7.198600   18.066499 
   3.857956    9.088798   19.842853 
   5.855037    7.206800   19.877175 
   5.744399    9.017549   18.006830 
   3.884563   10.840443   21.677810 
   3.930581   12.668071    1.795406 
   5.779450   10.803248    1.689868 
   5.775439   12.641355   21.656630 
   3.913133   10.860430    3.552258 
   3.940259   12.636805    5.446184 
   5.809782   10.860107    5.413626 
   5.885164   12.587202    3.564600 
   3.927310   10.800232    7.284627 
   3.903502   12.702194    9.102478 
   5.710278   10.920456    9.118486 
   5.859537   12.749160    7.330058 
   3.977471   11.027372   10.958387 
   3.978615   12.792059   12.657238 
   5.873787   10.892449   12.679477 
   5.820356   12.788750   10.840044 
   3.950443   10.916575   14.380278 
   3.880775   12.735930   16.283624 
   5.711357   10.981193   16.163620 
   6.004355   12.854532   14.403661 
   3.902131   10.858746   17.982662 
   3.960018   12.643815   19.809998 
   5.825121   10.798596   19.840545 
   5.883055   12.588665   18.017021 
   3.926403   14.455206    0.001239 
   3.932679   16.143815    1.821664 
   5.871560   14.421252    1.785725 
   5.801935   16.268478   21.688231 
   3.997072   14.335500    3.587464 
   3.903475   16.220821    5.430186 
   5.748150   14.390065    5.460446 
   5.799473   16.173994    3.680710 
   4.004196   14.373941    7.305249 
   4.048496   16.230841    9.046422 
   5.845478   14.576097    8.990030 
   5.957592   16.151405    7.166335 
   3.884262   14.457760   10.800843 
   3.911457   16.356209   12.579244 
   5.918373   14.581826   12.666999 
   5.874728   16.325233   10.820410 
   3.883381   14.531314   14.485849 
   3.938513   16.257822   16.298667 
   5.882783   14.461269   16.395588 
   5.779101   16.220157   14.573494 
   3.828990   14.460804   18.199941 
   3.862893   16.258495   19.969908 
   5.834218   14.564322   19.969214 
   5.880577   16.342771   18.145202 
   3.914306   18.091283    0.155438 
   3.845097   19.786228    1.912080 
   5.834468   18.012472    1.717058 
   5.845018   19.983776    0.071633 
   3.918757   17.990099    3.643985 
   3.796502   19.827523    5.388649 
   5.838486   18.006804    5.421334 
   5.719670   19.880582    3.613814 
   3.955897   17.962684    7.202428 
   3.949853   19.808447    8.976233 
   5.895457   18.080157    8.958378 
   5.863264   19.757073    7.070927 
   3.915870   18.086242   10.776392 
   3.838504   19.879439   12.612648 
   5.879466   18.085151   12.623592 
   5.861778   19.892208   10.740049 
   3.967687   18.088686   14.454603 
   3.955960   19.913527   16.323045 
   5.883315   18.211774   16.281748 
   5.746397   19.899782   14.468459 
   3.890190   18.023241   18.160889 
   3.958801   19.966211   20.054443 
   5.720346   18.132037   20.019420 
   5.846986   19.948309   18.137224 
   7.657786   21.688513    0.106896 
   7.636425    1.817786    1.785583 
   9.766026    0.389672    2.051612 
   9.674467    1.799184   21.575074 
   7.760760    0.063965    3.678503 
   7.851855    2.020978    5.310556 
   9.989351    0.015019    5.256122 
   9.831406    2.092888    3.824765 
   7.789650    0.012370    6.907802 
   7.643901    1.829172    8.893265 
   9.752173    0.066632    9.033602 
   9.754785    1.925285    7.062848 
   7.879015   21.643992   10.853141 
   7.728539    1.762896   12.664731 
   9.837426   21.605620   12.884855 
   9.846733    1.701993   11.072227 
   7.786025    0.067567   14.396015 
   7.716798    1.794677   16.321060 
   9.682857    0.250183   16.150766 
   9.721094    2.117561   14.393315 
   7.666795   21.683445   18.182075 
   7.634070    1.696774   19.991610 
   9.931501   21.404918   20.017231 
   9.545413    1.658674   18.265143 
   7.759254    3.561619    0.032629 
   7.791168    5.485642    1.836124 
   9.804310    3.699456    1.777135 
   9.678152    5.478632   21.546270 
   7.748274    3.798974    3.548242 
   7.796075    5.569968    5.590096 
   9.869861    3.848209    5.511375 
   9.982677    5.491700    3.535509 
   7.722042    3.749199    7.344660 
   7.748952    5.485991    9.109429 
   9.664961    3.346525    9.160866 
   9.668719    5.482303    7.569161 
   7.851974    3.605699   10.860133 
   7.768399    5.242232   12.695505 
   9.862799    3.857551   12.400832 
   9.810985    5.537954   10.577273 
   7.733947    3.571494   14.588228 
   7.704242    5.396602   16.293694 
   9.718116    3.474463   16.524360 
   9.827664    5.161727   14.519906 
   7.637601    3.565236   18.172402 
   7.700003    5.395377   19.878810 
   9.657842    3.579989   19.821789 
   9.694823    5.394654   18.158049 
   7.650759    7.191241    0.017235 
   7.692268    9.051430    1.784461 
   9.765323    7.366768    1.808740 
   9.604511    9.085942   21.609859 
   7.696062    7.214857    3.766372 
   7.648804    9.094108    5.434494 
   9.991370    7.147822    5.499042 
   9.592992    9.072978    3.763669 
   7.717560    7.302258    7.275917 
   7.564424    9.160306    9.086547 
   9.592251    7.622631    9.072849 
   9.620651    9.240266    7.001548 
   7.565733    7.395790   10.855733 
   7.656525    9.048855   12.822072 
   9.696318    6.961781   12.568493 
   9.755583    9.140967   11.185202 
   7.732469    7.121586   14.432106 
   7.613811    8.987229   16.142304 
   9.779774    7.122253   16.133265 
   9.816811    8.924087   14.331288 
   7.759236    7.250177   18.001964 
   7.630618    9.033244   19.819858 
   9.637425    7.364721   19.786635 
   9.696266    8.991894   17.967651 
   7.761760   10.811544   21.662918 
   7.816161   12.691457    1.684590 
   9.793565   10.780813    1.730989 
   9.781293   12.524410   21.572850 
   7.812203   10.839786    3.581187 
   7.726230   12.657675    5.467774 
   9.692490   11.061382    5.331799 
   9.716694   12.703891    3.461420 
   7.657552   10.928753    7.186590 
   7.636279   12.587100    9.207382 
   9.638710   10.605515    9.106624 
   9.811887   12.646537    7.656584 
   7.700326   10.878057   10.978195 
   7.756394   12.658052   12.669608 
   9.725601   11.082159   12.967438 
   9.821235   12.539077   10.713392 
   7.736360   10.834533   14.579338 
   7.777511   12.668774   16.356219 
   9.594218   10.843264   16.184756 
   9.566031   13.022708   14.598642 
   7.641272   10.793657   17.978188 
   7.665961   12.588026   19.730071 
   9.667653   10.912113   19.682220 
   9.805610   12.689053   17.940099 
   7.819431   14.453853   21.365823 
   7.712961   16.147624    1.756131 
   9.813975   14.607720    1.540521 
   9.806531   16.419845   21.528237 
   7.732921   14.446109    3.636070 
   7.752833   16.133219    5.464964 
   9.879992   14.157140    5.614574 
   9.716741   15.873338    3.730977 
   7.920477   14.355699    7.515172 
   7.821159   16.295648    9.057597 
   9.892018   14.715306    9.026940 
   9.638994   16.266409    6.957856 
   7.860958   14.531134   10.939550 
   7.825257   16.367344   12.610377 
  10.018454   14.339957   12.559010 
   9.921600   16.351743   10.976543 
   7.676910   14.613907   14.509899 
   7.697481   16.278064   16.409401 
   9.537197   14.706256   16.585150 
   9.779618   16.118170   14.343611 
   7.683370   14.415641   18.252859 
   7.735340   16.439791   19.906943 
   9.728255   14.390870   19.849286 
   9.851941   16.450932   18.327439 
   7.669267   18.083615    0.041110 
   7.682356   20.013530    1.998649 
   9.576772   17.844280    1.945214 
   9.563940   19.863290    0.341710 
   7.679446   17.895227    3.589542 
   7.814035   19.711997    5.119431 
   9.841282   18.160868    5.243428 
   9.669866   19.861951    3.384456 
   7.782758   18.035517    7.058536 
   7.757986   19.886708    8.872095 
   9.613469   17.976628    8.942028 
   9.694511   19.886452    7.190737 
   7.779686   18.254593   10.733542 
   7.677260   19.870854   12.675433 
   9.726614   18.204936   12.764143 
   9.674241   19.848062   10.751480 
   7.702852   18.010141   14.464705 
   7.650114   20.044131   16.278332 
   9.697017   17.905521   16.209963 
   9.630974   19.933716   14.642915 
   7.746289   18.278493   18.084239 
   7.691955   19.904881   19.899981 
   9.872387   18.388566   19.959816 
   9.667704   19.939214   17.848259 
  26.160060    8.582425    0.485849 
  36.626229    0.721885    2.141923 
  24.688030   21.470016   14.090752 
  13.057949   11.765939    5.418694 
  20.383195    2.062366    3.467725 
  45.588031    6.392430   12.879068 
  44.281808    2.459069   11.737461 
  32.391227    9.273566   18.182089 
  36.305637   18.580232    3.984091 
  15.900684    3.009580    9.719490 
  46.157102   11.230846   20.193934 
  23.151202   14.492357    7.792049 
  50.365467    9.738492   10.298895 
  45.622058   21.162120    1.382549 
  25.197834   11.887432    0.723103 
  25.018355    8.376049    8.930192 
  19.326454   16.170181    5.542021 
  12.936724    7.209581   14.337619 
  24.475548    5.349574   10.632147 
  25.748049   17.706131   18.168432 
  41.661031    2.277263    2.629189 
  30.525221    5.892816    7.748152 
  24.784780    1.339254   11.103022 
  29.788353   13.148541    8.479686 
  25.718811    9.966022    3.737409 
  53.267446    9.323984    1.987254 
  20.727864   12.799286   15.235486 
  47.839597    0.621995   16.848038 
  33.221820   21.044656    1.810794 
  25.602403   19.686804    2.142400 
 157.552410    5.578639   13.718600 
  39.977424   10.484616   19.040047 
  46.676740   19.120424    4.896742 
  41.241244    4.818142   19.937503 
  15.746717   18.225350    0.421541 
  35.657269   20.580002   12.349433 
  30.535783   20.926289    7.845110 
  22.028763   21.309724   10.602752 
  42.144367   17.702106    9.631607 
  28.725420   11.604474   21.182484 
  28.918169   16.400580    8.831667 
 143.958707   13.897593    1.005107 
  38.564864    6.511757   14.216343 
  34.231015    2.529020   12.084221 
  51.166623    0.701036   10.046976 
  27.443290    5.643728   20.401805 
  12.695207    7.303164   17.962956 
  40.920719    2.631245   10.573315 
  21.906463   16.763043   18.243532 
 156.803508   19.231761   10.618606 
  40.168009   13.678724   16.010004 
  12.936446    4.916002   20.974092 
  38.550362    3.724200    4.082029 
  28.191826    5.665327   14.132730 
  18.814213   13.410655    2.168838 
  39.357348   16.644490   10.850418 
  35.421884   12.043199    3.202478 
  50.212873    2.486979   15.074797 
  53.296827    5.113417   16.004790 
  45.839617    7.396187   20.752486 
  33.748998   14.140550   20.561210 
  43.361625   14.344392    6.722256 
  31.346726   12.872648    1.123021 
  45.332430   19.143492    7.834206 
  46.822048    3.490054   19.184086 
  31.064352    5.466264   20.332505 
  15.786152    2.521480   19.380270 
  51.450137    9.442666   20.278667 
  20.460614   13.036054   11.607623 
  43.630266    7.008921    1.224359 
  60.989695   20.430346    5.778515 
  20.304939   18.503471   12.626012 
  19.557695   16.500737    1.578475 
  31.605012    6.199645   13.774056 
  31.622656   15.232185   16.120992 
  43.603223    5.085041    4.213812 
 120.521726    3.932553    1.550804 
  18.972590   20.542049    1.852559 
  41.086142   15.813852   13.726930 
  51.292240   15.860312   10.546893 
  46.942538   13.389085   12.523395 
  35.185875   17.070577    6.677882 
  42.132744   20.574533   11.615687 
  47.660495    8.595927    2.312180 
  18.822009   19.222959    8.615842 
  22.546363   11.569783    9.406567 
  55.193414   16.931285    9.961555 
  25.194382   11.637650   16.331475 
  21.095990    7.946386   19.528258 
  39.202687   21.482543    0.371834 
  43.727888    8.831227    4.231759 
 157.571698    5.710515    5.258737 
  21.623365    0.726838    0.447514 
  47.656194    9.776722   12.660581 
  31.737692    8.173806    6.068370 
  33.649029   17.452849   13.626229 
 157.476142   20.207430   21.372285 
  31.957832    2.203716   20.549988 
  39.984750   16.037823    4.330985 
  16.561764   15.038029    0.545659 
  18.936677    6.861673    6.271506 
  24.426583    3.459017   13.511481 
  19.666777   13.890204   20.607984 
  35.859695   14.794686   10.093483 
  35.825300   18.575039    0.545207 
  54.974742    8.234938   15.229196 
  27.862027   18.415137   21.087908 
  33.590912   12.856431   17.131849 
  27.514617    3.615378   10.915888 
  31.124734    9.495730    0.472650 
  18.534674   10.727974   13.681935 
  24.116499   18.139857   15.206451 
  30.211046   20.979885   15.749638 
  45.223314    8.821806   15.801324 
  37.891172    9.791964    2.856420 
  15.675813    8.351278   16.408495 
  38.512322    6.470278   18.175737 
  19.556063    7.299693   14.379451 
  12.744753    6.261835    8.192400 
  13.023021   12.528793   20.603945 
  25.176553    2.229767    7.887479 
  31.233042   21.689614   11.535905 
  47.772957   12.375907    1.210819 
  12.908970   15.657101    5.352763 
  25.174180   13.536370    3.793494 
  51.068559   17.341754    3.921099 
  15.326188    1.155755   15.914627 
 156.533405   14.594802    5.951391 
  39.189384   15.739747    7.447825 
  49.232024   12.713300   19.897491 
  50.590930   21.000915    5.688051 
 157.722469   19.372649    4.224772 
  13.017516    1.333614   20.680834 
  37.992474    1.244284   18.453485 
  27.643688    1.141893   14.487230 
  12.933876    7.079262    2.165222 
  44.784346   17.578783    0.544376 
  12.895075   10.391288    2.329670 
  43.215840   10.590250    6.882365 
  27.549973    7.372411   10.938870 
  28.617311    8.566575    2.669175 
  24.717480   16.807057    0.337038 
  41.365714   21.562338    7.729736 
  16.006496   17.334922   12.157874 
  34.581461    0.992978    4.698757 
  16.016276   11.540207   15.882150 
  13.502603   14.942724   11.227897 
  51.455412    0.425751   18.536646 
  30.608219   10.056196    8.940199 
  25.547491   18.855207   10.834533 
  30.203429    8.392296   16.047993 
  25.882738   16.631074    7.462502 
  48.773931   12.740323    6.646139 
  36.553770   16.045020   19.349580 
  23.728336   11.930949   13.093613 
  38.446586    5.498139    7.597097 
  43.922549    9.039202    9.924862 
  41.201878    5.407873   12.591394 
  47.394909    5.522047   16.209359 
  52.136369   13.669747   20.743551 
  26.800379    4.117935    5.195389 
  41.505725   15.871097    1.115682 
  28.465924    8.914578    6.085147 
  37.964093   14.668450   13.127325 
  25.969436   14.446559   10.287768 
  23.805926    1.917914   17.346494 
  13.171302   17.138331    2.468636 
  18.990850    3.901804   14.617370 
  56.776311   21.078146   12.143686 
  50.283310   20.539220   15.266890 
  43.518895    0.369101   14.026354 
  28.143050    2.318817    0.337017 
  50.220579    2.534558    3.789880 
  35.292611    9.934236    5.641338 
  51.684219   19.082138    0.751371 
  33.083592   11.000163   11.316217 
  40.260317   14.770885   19.267565 
  16.084284    6.706329    4.267157 
 157.594557   17.615706    7.062044 
  21.846579    3.323116   19.799744 
  42.927025    8.486520   13.270598 
  22.476693   13.749573    1.043197 
  12.828967    7.777073   11.140495 
  38.967439   20.014653   10.783445 
  28.189299   15.756098   12.729394 
  19.350853    9.697997   10.184910 
  24.529109    6.958450   14.302207 
  41.227906   10.593369    0.927381 
  36.991709    5.001932   11.257476 
  15.904480    8.963449    6.749404 
  43.719743   14.596370   15.734248 
 117.829785    2.016376    3.143771 
  12.797865   10.632283   17.992741 
  12.880850    3.397505   14.652080 
  12.878190   17.512038   17.709140 
  44.877274   10.342651    1.328150 
  35.282732    2.653762    7.638956 
  12.943608   10.724506   14.671681 
  12.755345    8.937098   20.669216 
  18.367261    2.066681    0.442049 
  26.622850    0.664162    4.239684 
  12.995679    2.937376    2.049586 
  30.520702   15.582037   20.788020 
  46.425119   16.295521   14.057700 
  13.419216   18.983980    5.628518 
  24.162914   20.789464    6.864904 
  23.500293   10.874786    5.919838 
  27.159459    6.118800    7.833127 
  38.272125   19.037542    7.482148 
  34.312278    9.168706    8.679369 
  15.874401   16.392919   18.939254 
  43.196948   12.371589   19.476372 
  38.712316    9.797738   15.886458 
 120.163400   18.227851    0.448445 
  34.553697    7.323595   21.329751 
  32.287595   20.532424   18.628568 
  20.840746    4.076857    5.969100 
  44.526440    1.703037   16.534451 
  24.220979    5.748594   21.337169 
  42.788243   11.280073   16.228955 
  24.310925    8.019906   18.348466 
  50.857404   15.767888    7.055087 
  29.334373   18.575277    4.306949 
  17.083497    9.641306   19.315121 
  24.759848    2.551111    1.555616 
  28.285920   11.211624   17.736538 
  19.971566   10.368183   21.493959 
  29.954893   12.935931   11.854752 
  15.676829   15.475284   15.189947 
  53.565193   20.139871    3.806885 
  29.879179   20.387987    1.393591 
  13.409915    4.919584    4.754204 
 155.991808    3.822848   19.642540 
  28.206250   12.156420    3.584321 
  15.822054   12.688226   12.430413 
  37.007269    0.978182   15.148751 
 157.585690   12.259493   17.108952 
  15.963014   12.722916   18.875411 
  12.738134   21.100337    8.292554 
  16.026837   19.286760   15.533461 
  38.314774    9.508540    7.457819 
  26.556051   16.744356    3.218802 
  13.022021    8.179140    5.275959 
  36.113237   11.685489   15.226491 
  34.768809    5.838124    7.557797 
  68.425618   20.432373    6.462139 
  48.058879   15.472199    9.984220 
  28.004065   21.687332   10.890292 
  19.269911    5.955422    2.948664 
  50.768238   12.712256    9.717657 
  12.741752    3.399898   17.969908 
  51.351644   12.271009   13.294325 
  20.198140    1.664609   17.455153 
  40.625866    5.968938    2.045773 
  12.917504   17.093358    8.550493 
  43.572145   16.859018    4.153679 
  39.683975    7.932837   21.288173 
  19.164630   19.854879    5.122878 
  41.221451    1.096918   17.357275 
  15.959022   10.660223    9.717236 
  18.928954   18.348728   20.226606 
  48.574632    9.219393    6.456923 
  46.991545    3.538179   13.645663 
  13.030778    3.223937    7.612497 
  33.899259    1.363531   16.452936 
  51.955739   19.370196    9.164284 
  28.100986   14.777711   17.396090 
  50.509075    6.585486    8.350753 
 155.459736   18.565442   16.028831 
  43.268897    9.034960   19.282307 
  12.977447   12.833130    8.659008 
  31.360266    2.530811    2.578121 
  43.889470   21.179091    4.838144 
  21.843453   18.385777    6.764150 
  35.364494    4.715171   18.336844 
  34.306099    8.814387    2.394806 
  15.334698    4.458148   16.338733 
  49.089545   18.207595   11.827487 
  22.592674    9.426633   15.968289 
  53.221610   14.373053    2.096404 
  16.091687   20.614957    3.619995 
  39.242398   20.233434    4.103775 
  19.497691    0.857362    7.144492 
  12.907979   14.088527   14.428183 
  33.314687    9.793413   14.585037 
  16.687459   17.336935    7.101532 
  37.844061   11.671115   11.787396 
  16.334056   21.239752    7.051054 
  31.767499   17.376626    6.560374 
  35.598239    9.650705   18.632685 
  29.024383   15.155350    5.427677 
  50.520109    2.863967   21.309506 
  27.226200   19.615645    8.159064 
  58.754269    5.661886   11.431571 
  43.334850   18.010310   13.924977 
  49.318989    6.132030   20.439693 
  19.912039   15.902008    8.649734 
  42.208281   19.331487    2.598454 
  29.569385   18.309973   18.164115 
  34.657860    7.383891   16.555189 
  27.051834   14.395634    0.106925 
  35.638603   15.078759   16.255413 
  36.273782   15.688509    2.975485 
  32.164729   15.207110   10.736053 
  15.311215    9.207434   13.023777 
  25.789882   16.894563   18.921193 
  50.025007    3.068118    6.917158 
  15.563048   19.329482    9.572412 
  22.002820    4.568055    1.959993 
  12.960193   19.118321   20.868561 
  45.544575   18.274881   11.564519 
  21.684056    8.166442    4.307945 
  28.909688    8.239404   19.130674 
  33.734102    5.307524    4.446830 
  92.322448   16.479846   20.121965 
  37.727235    1.732162    9.846660 
  40.054090   13.453772   10.028908 
  32.164374   10.775383    4.000490 
  15.959971   20.567543   19.218254 
  38.467283    3.653880   21.444428 
  13.066187   13.704719    2.412741 
  40.783257   20.193230   14.850554 
  17.402620    8.221515    0.679542 
  32.736856   18.651212   10.579537 
  21.747526   10.930646    2.605987 
  15.257729   14.315115    6.905752 
  47.931529    5.374685    4.854131 
  39.358388    3.961474   16.443805 
  21.351839    1.467609   13.126380 
  43.974926   11.886289   12.298310 
 157.787711    5.498763   10.255974 
 157.447975    0.760873   11.924114 
  25.179229    6.127224    3.002935 
  13.009939   20.868609    2.274246 
  47.372296    0.394778    6.574746 
  43.657757   15.972370   19.390927 
  49.925554   10.485710    3.353311 
  16.742612    3.051226   19.110113 
  53.504583   17.377494    6.316586 
  20.804680   13.371782    4.870424 
  35.770044    0.575056   20.676416 
  21.909193    7.770449    8.425712 
  50.245057    6.579708    2.489094 
  27.391660   10.645992    9.886362 
  37.481721    6.545834    1.347443 
  22.082740   18.719092    0.228687 
  46.693074   21.377165   10.820744 
  35.338996   19.906527   16.651871 
  12.872665    4.357477   11.422672 
 157.459806   17.052421   20.113598 
  49.740284   13.883332    3.753595 
  41.204401    2.900407    6.057881 
  13.045084   14.360085   17.514417 
  16.136874   11.677422    0.745292 
  34.088695   10.840491   21.210600 
  36.591366   14.119263    6.603983 
  47.778573    2.469360    9.681062 
  29.992946    9.774015   12.788240 
  35.406741    7.883786   12.455218 
  18.824194   15.521069   12.960447 
  38.590117   17.854975   15.759702 
  48.996892   19.682087   19.564197 
  38.367111    8.486452   10.626886 
  34.182082   13.896236   13.227751 
  18.959724    5.492932   21.305303 
  52.848318    5.347594    6.699695 
  12.955108   15.760499   21.254664 
  46.325158   15.335688    2.791513 
  18.905982   12.745259    8.540304 
  22.215786   20.793608    3.491067 
  26.483178   12.713369    7.203215 
  30.888967   12.720543   19.027360 
  42.023890   18.410412    6.499131 