System 
          1
 160.844879    0.000000    0.000000 
   0.000000   21.689760    0.000000 
   0.000000    0.000000   21.689760 
  Cu  C
  432  521
Cartesian  configuration=        1000000
   0.000000    0.000000    0.000000 
   0.000000    1.807473    1.807473 
   1.950789    0.053801    1.819695 
   2.004624    1.899719   21.646134 
   0.000000    0.000000    3.614967 
   0.000000    1.807473    5.422440 
   1.963838    0.092838    5.462545 
   2.006994    1.837833    3.590696 
   0.000000    0.000000    7.229913 
   0.000000    1.807473    9.037407 
   2.015379   21.679056    9.134066 
   2.077070    1.946208    7.362243 
   0.000000    0.000000   10.844880 
   0.000000    1.807473   12.652353 
   2.131199   21.615845   12.621256 
   2.020547    1.823558   10.798804 
   0.000000    0.000000   14.459847 
   0.000000    1.807473   16.267320 
   2.043567    0.027514   16.065381 
   2.012760    1.894918   14.420236 
   0.000000    0.000000   18.074793 
   0.000000    1.807473   19.882287 
   2.052159   21.690565   19.817225 
   2.074533    1.826474   18.174150 
   0.000000    3.614967    0.000000 
   0.000000    5.422440    1.807473 
   1.996435    3.585240    1.834616 
   1.998233    5.446028    0.191741 
   0.000000    3.614967    3.614967 
   0.000000    5.422440    5.422440 
   1.962643    3.561748    5.460874 
   1.935529    5.254113    3.646499 
   0.000000    3.614967    7.229913 
   0.000000    5.422440    9.037407 
   2.061650    3.716996    9.102799 
   1.979677    5.443458    7.145958 
   0.000000    3.614967   10.844880 
   0.000000    5.422440   12.652353 
   2.009408    3.621572   12.580562 
   1.986737    5.473825   10.937044 
   0.000000    3.614967   14.459847 
   0.000000    5.422440   16.267320 
   2.012045    3.593210   16.330219 
   2.018055    5.486116   14.521087 
   0.000000    3.614967   18.074793 
   0.000000    5.422440   19.882287 
   1.979132    3.677974   19.879171 
   1.953631    5.349114   17.921016 
   0.000000    7.229913    0.000000 
   0.000000    9.037407    1.807473 
   1.928606    7.271562    1.949592 
   2.001720    8.984816   21.664505 
   0.000000    7.229913    3.614967 
   0.000000    9.037407    5.422440 
   1.961775    7.145135    5.473092 
   1.993235    8.898718    3.695927 
   0.000000    7.229913    7.229913 
   0.000000    9.037407    9.037407 
   1.966074    7.312810    8.983340 
   1.998340    9.062041    7.199310 
   0.000000    7.229913   10.844880 
   0.000000    9.037407   12.652353 
   1.927397    7.310202   12.840143 
   1.950183    9.022637   10.894698 
   0.000000    7.229913   14.459847 
   0.000000    9.037407   16.267320 
   2.014667    7.256777   16.334548 
   1.990371    9.136054   14.457160 
   0.000000    7.229913   18.074793 
   0.000000    9.037407   19.882287 
   1.891009    7.149890   19.959186 
   2.037294    8.945854   18.124288 
   0.000000   10.844880    0.000000 
   0.000000   12.652353    1.807473 
   1.911624   10.877985    1.896886 
   1.990430   12.614298    0.058159 
   0.000000   10.844880    3.614967 
   0.000000   12.652353    5.422440 
   2.090791   10.849519    5.384508 
   1.917119   12.745662    3.719259 
   0.000000   10.844880    7.229913 
   0.000000   12.652353    9.037407 
   2.055005   10.838404    8.944228 
   2.092680   12.667809    7.154254 
   0.000000   10.844880   10.844880 
   0.000000   12.652353   12.652353 
   1.967348   10.860504   12.700109 
   2.052487   12.625316   10.930645 
   0.000000   10.844880   14.459847 
   0.000000   12.652353   16.267320 
   1.995545   10.783156   16.396977 
   1.876207   12.728703   14.541648 
   0.000000   10.844880   18.074793 
   0.000000   12.652353   19.882287 
   2.133907   10.756097   19.906803 
   2.014961   12.657943   18.124969 
   0.000000   14.459847    0.000000 
   0.000000   16.267320    1.807473 
   1.910395   14.443087    1.853027 
   1.936614   16.312937    0.055605 
   0.000000   14.459847    3.614967 
   0.000000   16.267320    5.422440 
   2.143150   14.546955    5.429305 
   1.961597   16.355811    3.609665 
   0.000000   14.459847    7.229913 
   0.000000   16.267320    9.037407 
   1.999991   14.433348    8.996086 
   1.937186   16.351071    7.185133 
   0.000000   14.459847   10.844880 
   0.000000   16.267320   12.652353 
   1.921050   14.397727   12.625937 
   2.056278   16.231048   10.847997 
   0.000000   14.459847   14.459847 
   0.000000   16.267320   16.267320 
   1.881164   14.453344   16.288383 
   1.964569   16.213792   14.525516 
   0.000000   14.459847   18.074793 
   0.000000   16.267320   19.882287 
   1.883804   14.484771   19.937847 
   1.966803   16.296434   18.032307 
   0.000000   18.074793    0.000000 
   0.000000   19.882287    1.807473 
   1.960613   18.151510    1.820364 
   1.986803   19.923347   21.587082 
   0.000000   18.074793    3.614967 
   0.000000   19.882287    5.422440 
   1.966964   18.164718    5.392778 
   1.887784   19.936594    3.688120 
   0.000000   18.074793    7.229913 
   0.000000   19.882287    9.037407 
   1.947596   17.997114    9.046252 
   1.958687   19.937676    7.242922 
   0.000000   18.074793   10.844880 
   0.000000   19.882287   12.652353 
   1.858185   18.110714   12.616183 
   1.974817   19.886721   10.800314 
   0.000000   18.074793   14.459847 
   0.000000   19.882287   16.267320 
   1.941632   18.126267   16.196053 
   2.042116   19.884912   14.390060 
   0.000000   18.074793   18.074793 
   0.000000   19.882287   19.882287 
   1.912373   18.075385   19.861361 
   2.046650   19.935060   18.014708 
   3.846078   21.682347    0.078428 
   3.937714    1.905680    1.702565 
   5.828538    0.140096    1.797471 
   5.710382    1.857888   21.536971 
   3.797807    0.086425    3.622590 
   3.951490    1.880933    5.471572 
   5.741097    0.079187    5.560595 
   5.822638    1.988746    3.716386 
   3.942000    0.109293    7.413139 
   3.925047    1.982441    9.031064 
   5.892468    0.160939    9.107279 
   5.912606    1.848977    7.294583 
   4.036697    0.151880   10.769298 
   3.773386    1.786805   12.606338 
   5.759649    0.071525   12.534095 
   5.778594    1.971751   10.862184 
   3.972414   21.677454   14.436024 
   3.767384    1.782491   16.182878 
   5.757087    0.149174   16.150905 
   5.681847    1.773322   14.324085 
   3.975392   21.654127   17.896878 
   3.792112    1.790781   19.771284 
   5.866536    0.010557   19.940497 
   5.708084    1.812724   18.093931 
   3.837075    3.710978   21.668470 
   3.895036    5.326336    1.894681 
   5.897739    3.673486    1.743395 
   5.695337    5.509617   21.579464 
   3.795855    3.593927    3.553109 
   3.844531    5.336699    5.329736 
   5.864929    3.695234    5.456408 
   5.775111    5.354757    3.539905 
   4.048191    3.682947    7.220187 
   3.811509    5.596397    9.070844 
   5.905254    3.676580    9.053831 
   5.783190    5.478191    7.359366 
   4.032034    3.708107   10.902454 
   3.938696    5.428341   12.715981 
   5.801030    3.544289   12.722392 
   5.862719    5.448636   10.847927 
   3.906733    3.675183   14.448953 
   3.924239    5.400820   16.372418 
   5.737420    3.544306   16.220634 
   5.807034    5.517776   14.450089 
   3.997391    3.641503   18.133475 
   3.805138    5.423781   19.790870 
   5.843977    3.672327   19.890932 
   5.784888    5.397334   18.135606 
   3.881180    7.250224   21.685547 
   3.801467    9.013915    1.729941 
   5.746333    7.187173    1.735311 
   5.780493    9.005942   21.609169 
   3.850413    7.165964    3.607587 
   3.931258    8.871744    5.423630 
   5.782111    7.117008    5.402455 
   5.734989    8.940851    3.519225 
   3.953532    7.220362    7.087737 
   3.903345    8.948166    9.013627 
   5.818214    7.371187    9.082092 
   6.025465    8.943415    7.179487 
   3.857441    7.318338   10.865600 
   3.840091    9.135996   12.701900 
   5.713293    7.366900   12.600019 
   5.725582    9.137190   10.897357 
   3.902159    7.265378   14.425687 
   3.979146    8.997005   16.297798 
   5.747455    7.230106   16.326748 
   5.713572    9.114989   14.538538 
   3.876640    7.156039   18.110638 
   3.866992    8.869415   19.863126 
   5.762035    7.161603   19.815723 
   5.799028    9.023014   18.179102 
   3.939884   10.868296    0.030422 
   3.821940   12.665833    1.901013 
   5.722266   10.825295    1.807830 
   5.788409   12.665520   -0.017067 
   3.822084   10.748373    3.558783 
   3.849775   12.685144    5.279734 
   5.703555   10.782187    5.479190 
   5.735166   12.627923    3.587503 
   3.904645   10.816337    7.187552 
   3.910088   12.664977    9.064909 
   5.732093   10.830402    9.041005 
   5.871744   12.578994    7.166210 
   3.832556   10.763521   10.858442 
   3.866907   12.648420   12.779530 
   5.816617   11.028526   12.754408 
   5.722672   12.680076   10.808537 
   3.888804   10.875610   14.614297 
   3.854440   12.694628   16.308320 
   5.848286   10.873696   16.265035 
   5.806781   12.797410   14.536007 
   3.950347   10.829523   18.050832 
   3.838208   12.704336   19.870125 
   5.722779   10.910828   19.807021 
   5.770730   12.837142   18.170593 
   3.802530   14.496626    0.016191 
   3.773328   16.279962    1.870924 
   5.757295   14.583010    1.738609 
   5.647499   16.391134    0.134777 
   3.908858   14.534720    3.546929 
   3.882563   16.286809    5.409637 
   5.790677   14.539196    5.285858 
   5.727789   16.350595    3.617368 
   4.024393   14.579744    7.233927 
   3.991559   16.350061    8.970037 
   5.875099   14.448852    9.027358 
   5.787222   16.340041    7.153282 
   3.888854   14.509783   10.788949 
   3.837804   16.258171   12.615968 
   5.834722   14.505074   12.680636 
   5.743810   16.323813   10.798805 
   3.844681   14.501412   14.502540 
   4.025401   16.215846   16.278895 
   5.840802   14.478331   16.368316 
   5.780259   16.308172   14.407671 
   3.866369   14.531538   18.169751 
   3.783472   16.339794   19.905892 
   5.749088   14.548605   20.000624 
   5.783495   16.347444   18.064779 
   3.820901   18.125853   21.688190 
   3.867793   19.914473    1.923448 
   5.879132   18.212791    1.833835 
   5.744062   20.019468    0.110207 
   3.872620   18.095311    3.659315 
   3.801290   20.007652    5.411648 
   5.698100   18.215208    5.398928 
   5.834314   20.050221    3.710737 
   3.777235   18.125509    7.264669 
   3.914671   19.963752    9.128767 
   5.742289   18.067753    9.017218 
   5.704755   19.898047    7.173688 
   3.843423   18.071413   10.878121 
   3.963150   19.920570   12.489918 
   5.855055   18.104299   12.513942 
   5.847982   19.892107   10.751736 
   3.922140   18.023896   14.408950 
   3.870046   19.721090   16.220820 
   5.795321   18.124780   16.236666 
   5.760468   19.910978   14.401025 
   3.896102   18.135302   18.020062 
   3.908598   19.983976   19.866687 
   5.651538   18.159683   19.876437 
   5.870131   19.910043   18.016061 
   7.724307   21.661776    0.021648 
   7.658397    1.835996    1.726424 
   9.745753    0.077701    1.923908 
   9.724711    1.760736   21.532433 
   7.624732    0.217887    3.609675 
   7.717992    2.004406    5.556930 
   9.656461   21.595548    5.476684 
   9.667912    1.915677    3.829668 
   7.745401   -0.007038    7.175647 
   7.858302    1.799302    9.156087 
   9.949916    0.096873    8.981238 
   9.941715    2.019946    7.185503 
   7.622122   21.570584   10.911978 
   7.716183    1.803109   12.614524 
   9.684614   21.642882   12.767690 
   9.697708    1.772240   11.078606 
   7.659188   21.661736   14.402965 
   7.680522    1.834718   16.156088 
   9.719037    0.332273   15.973631 
   9.878218    2.029073   14.156478 
   7.666807    0.027127   17.987594 
   7.717149    1.773422   19.859785 
   9.601236   21.484696   19.968776 
   9.749206    1.602451   18.166009 
   7.740974    3.700856   21.641224 
   7.681135    5.582642    1.649993 
   9.777616    3.454434    1.858307 
   9.721596    5.341691    0.124601 
   7.792370    3.748996    3.644543 
   7.605176    5.341815    5.544168 
   9.887963    4.009257    5.370250 
   9.801045    5.580760    3.195540 
   7.837482    3.633557    7.398057 
   7.753843    5.489564    9.268239 
   9.780718    3.635274    9.447829 
   9.908960    5.333639    7.732278 
   7.646373    3.543157   10.871944 
   7.721505    5.495675   12.564031 
   9.778732    3.966997   12.487543 
   9.927036    5.881928   10.788901 
   7.704612    3.621716   14.423819 
   7.622232    5.492826   16.254602 
   9.664961    3.480051   16.484733 
   9.673244    5.361657   14.582729 
   7.659193    3.655525   18.037650 
   7.837228    5.442788   19.857584 
   9.749734    3.794675   19.617366 
   9.789831    5.669789   17.893206 
   7.673640    7.259123   21.552241 
   7.635571    9.008866    1.835572 
   9.745048    7.394048    1.491923 
   9.820209    9.320166   21.492028 
   7.647617    7.050057    3.695034 
   7.686654    8.861149    5.224305 
   9.604802    6.884244    5.633959 
   9.833274    8.774096    3.740817 
   7.718701    7.081130    7.400088 
   7.574483    9.049650    9.131335 
   9.856612    7.639929    8.861892 
   9.809535    9.174091    6.821059 
   7.720234    7.322395   10.878049 
   7.721736    9.059393   12.723380 
   9.785202    7.226148   12.799677 
   9.739084    9.026319   11.100693 
   7.709837    7.265753   14.448916 
   7.586234    9.109039   16.226545 
   9.587535    7.418118   16.046624 
   9.606209    9.302388   14.332660 
   7.644656    7.241611   18.033805 
   7.769478    9.016276   19.856537 
   9.828697    7.333246   19.947023 
   9.624661    8.914304   18.099673 
   7.622052   10.765379   21.617596 
   7.576093   12.718340    1.727634 
   9.659531   10.638367    2.077634 
   9.502943   12.411663    0.160692 
   7.528189   10.829484    3.523087 
   7.574997   12.711165    5.388766 
   9.622062   11.046209    5.140121 
   9.679016   12.863916    3.267647 
   7.844005   10.793075    7.191220 
   7.744649   12.618269    8.979344 
   9.692648   10.572107    9.160481 
   9.774792   12.659587    7.279082 
   7.701807   10.903078   10.921925 
   7.693895   12.727416   12.562731 
   9.816749   11.153088   12.670983 
   9.619346   12.715486   10.554850 
   7.665546   11.029565   14.402878 
   7.621155   12.659755   16.357749 
   9.533896   10.904102   16.467360 
   9.634108   12.792949   14.594602 
   7.680510   10.881437   18.162225 
   7.675926   12.603213   19.832173 
   9.822855   11.014940   19.576872 
   9.776883   12.963223   18.031737 
   7.664606   14.481976    0.025728 
   7.741258   16.489272    1.861288 
   9.727652   14.712984    1.598327 
   9.744389   16.590034   21.488867 
   7.675018   14.522096    3.527713 
   7.681269   16.318359    5.318550 
   9.645392   14.389387    5.466889 
   9.845582   16.251375    3.762873 
   7.683016   14.621378    7.186410 
   7.561597   16.381281    8.989116 
   9.576860   14.625815    8.939851 
   9.669273   16.283197    7.159717 
   7.698391   14.540798   10.746652 
   7.628119   16.360674   12.646653 
   9.544519   14.409304   12.656940 
   9.667582   16.277789   10.902405 
   7.741890   14.505775   14.524949 
   7.663273   16.303728   16.227918 
   9.663370   14.772785   16.373243 
   9.752663   16.306020   14.253680 
   7.721764   14.575224   18.190526 
   7.561842   16.296595   20.089322 
   9.652814   14.273367   20.216930 
   9.673870   16.220515   18.441710 
   7.696744   18.267368    0.006480 
   7.739850   19.979451    1.935245 
  10.075376   17.963956    1.889394 
   9.687545   19.823031    0.242089 
   7.713894   18.180024    3.618035 
   7.743201   19.882650    5.407268 
   9.673324   18.129856    5.466886 
   9.748498   19.958284    3.685949 
   7.634048   18.166490    7.247979 
   7.810244   19.917281    9.006863 
   9.742137   18.094728    9.004588 
   9.929088   19.923457    7.329368 
   7.808917   18.088862   10.741553 
   7.647749   19.912847   12.682137 
   9.548782   18.258568   12.555454 
   9.657484   20.038968   10.838740 
   7.691404   18.025645   14.496895 
   7.649342   19.855956   16.284070 
   9.956452   17.618389   16.266202 
   9.714733   19.745087   14.727422 
   7.665238   18.010151   18.170879 
   7.596504   19.985793   19.776858 
   9.648617   18.502582   19.689803 
   9.635611   20.028740   17.718174 
  25.489815    2.106559    8.098358 
  46.992051   16.624062    4.019879 
  30.657202   20.102022    9.059455 
  32.317072   18.768765   20.693600 
  55.574784   14.644872   10.208437 
  26.808940    6.997797   12.648680 
  30.608324    9.883259   21.081437 
  25.027333   12.139132    4.281959 
  27.721172    4.745205    3.950172 
  94.219045   16.892325   15.746955 
  43.861368    5.822900   19.969307 
  12.962502    9.220531   13.776182 
  33.425694    1.930923   16.676916 
  44.539509   17.390517   14.750074 
  53.546833    1.185729   17.655461 
  40.795670    7.889627   13.660798 
 109.358338   16.066248    9.893843 
  33.037541    5.906364    3.558837 
  32.091134    4.319149   14.339598 
  13.023398   15.647652   10.463224 
  38.184083    7.725498    6.873518 
  24.406596    0.738921   15.475329 
  33.715651   12.639591    1.142160 
  34.135963   18.355122   14.901940 
  13.037115   10.381930    5.973296 
 154.777835    0.043539    0.110668 
  12.904231    8.322815   18.075626 
  46.448159    9.443355   19.339418 
  98.448518    4.071958   11.455513 
  42.724781    2.096453   17.913521 
  53.371109    3.265210    6.698146 
  53.818107    6.372071   13.820711 
  31.302489    4.598545   10.481935 
  30.876312    7.440465   11.916868 
  46.108397   20.857471   16.039701 
  36.346762   15.158878    0.965762 
  55.304440    2.348483    2.555284 
  75.556955   15.826107    2.142806 
  20.787138    0.552496   10.666019 
  27.088191   19.729128   13.484402 
  51.893889    7.602071   18.146679 
  39.279742    0.600347    6.505226 
  15.095716    8.710186    1.885320 
  13.028438    3.216258   13.548430 
  46.506980    3.685212    5.877930 
  55.220633   15.944645   16.766713 
  36.450265   20.230707   17.546324 
  47.728038   12.021215    3.303498 
  49.099965   19.815374   18.908320 
  23.280458    4.502649    6.071324 
  68.766417    9.726273   12.466750 
  35.505553    6.987025   14.127076 
  45.326289   20.325975    7.261778 
  12.827413    6.519095    4.424100 
  47.079422    7.139980   12.577569 
  29.798228    2.113525   16.076455 
  17.462854    2.469964    8.193550 
  38.585785   12.849692    3.062419 
  29.270686   13.967099   15.869184 
  38.281358    9.701964   13.724006 
  33.633567    9.387325    2.392121 
  28.246290   14.915341   11.367066 
  22.074150    2.307855   18.071685 
 120.905355    4.097314    5.743356 
  22.304255   15.654902    6.699652 
  36.126233    0.784184   13.974685 
  13.031892    3.396069    9.474512 
  15.673151    5.512280   18.391980 
  15.871654   15.414698   12.929898 
  28.787186   12.168339   18.744521 
  57.921522    6.606758   18.454382 
 157.692019   21.637049   10.107342 
  52.652953   20.643709   15.189433 
  40.624639   11.149294   20.938559 
  27.583003   19.996139    6.732933 
  19.954294    0.411866    6.918550 
  24.349795    4.187860   19.371245 
  41.831655   12.229425    6.328758 
  41.914048    1.165009   21.605122 
  15.941739    0.027820    5.467753 
 157.547205   16.377235    6.171205 
  34.343103   10.898477    8.459879 
  32.486556    0.538976   13.631460 
  27.716945   11.698683    8.450238 
  37.766421    6.274587   11.082075 
  23.695183   21.350005    9.871806 
  22.261422    6.387537   18.237775 
  30.770328   15.900731    9.051503 
  29.157334   11.638986   11.951231 
  32.463906    4.676565   18.146130 
  29.829743    1.959163    2.496579 
  24.244438   18.091051    5.444092 
  17.027742   20.957030    9.115733 
  55.303580    1.922029   10.084985 
  40.187218   14.547927    0.083072 
  35.073668    3.667459   20.101916 
 157.829259    3.630638   19.772682 
 129.362259   10.176247    1.790637 
 154.367161    8.356029    1.827275 
 105.377834    2.730152    0.185709 
  13.078772   20.517109   19.734637 
  13.161161   10.580342   20.513345 
  40.037606   10.023415    9.164284 
  12.896398   17.457946   20.792775 
  62.439176   17.999923   14.862699 
  36.854374    6.659923    3.903893 
 147.350160    6.516198    0.085397 
 118.131117   13.779647   11.866878 
  18.782391   12.934357   13.243345 
  53.617493    7.910699   21.354707 
  50.629375    2.918950    4.563188 
 154.305121   15.519466   15.529138 
  82.037843    7.135410    1.789894 
  45.779987   21.439205    0.028515 
  35.942028   15.070135   10.948399 
  53.490460   11.867222   13.486388 
 157.872083    8.901210    3.373551 
  13.293501   12.727800   12.057541 
  42.442087    8.777078    0.739849 
 148.348785   16.523992   19.133938 
 157.633890   14.938453   19.875428 
  19.236062   19.482180   12.639021 
  49.466625    9.307398   11.375814 
  15.904056    7.828333    5.517054 
  24.303116   15.550469   21.184409 
  27.441130   16.506385   14.269528 
 113.832976    0.461614    0.386397 
  44.793989   14.472716    8.427469 
  26.554843    9.267653    0.763520 
  27.187587    9.075786   19.179973 
  20.341319   11.025227    9.059936 
  12.973236    4.517122    1.915725 
  31.774790    3.231892    0.237875 
  15.642756    8.145418   20.415014 
  13.173641   16.369046    2.456465 
  17.085480    5.690904   14.744497 
  26.957816   18.642423    3.657834 
  33.189734   16.177159    0.975150 
  34.579945    7.167139   10.408268 
  21.861213   20.082290   17.549490 
  57.990818   12.250734   19.857334 
  35.023602   18.151017    6.814223 
  47.970702    6.971065    3.807027 
  16.245811   14.176521    6.667360 
  39.836773   16.145585   12.487254 
  17.980807   16.768215   10.186037 
  12.857226    0.793067    3.903901 
  19.103254   11.581440    2.617481 
  15.650742   20.303143   18.092898 
  12.919399   21.664213   11.634835 
  35.857928   20.901738    4.510573 
 146.703418   14.586632    0.239599 
  48.821761    3.366854   11.989953 
  23.292116    2.722289   12.022538 
  22.143725   12.890417   -0.012789 
  12.964605   13.102753    7.827468 
 131.660595   12.705625   19.942917 
  37.307394    2.618805    4.471611 
  16.796024   10.422780   10.228703 
  19.118332    6.435830    6.215162 
  44.270999    5.755127   16.519098 
 157.604633   15.363916   12.907337 
 157.754759   12.620258    0.419643 
  22.194707    1.735087    4.121308 
  33.908447   10.469693   12.663717 
  38.247677    3.815232   20.380399 
  21.315824   18.503143    0.596340 
  62.932801   21.503421   11.388773 
  28.279082    8.010572    9.943808 
  51.366215   10.983474    1.634311 
  15.874278   11.154436   13.800909 
 128.572035    2.481220   10.905417 
  22.005502   17.921613   14.701230 
  48.561444    1.018161   14.703432 
  52.603073   17.241733   20.313671 
 154.209326   13.914546    6.096190 
  30.994045    8.369728   17.548565 
  35.405197   17.484948    3.208015 
 157.890610   12.326083   11.209759 
  19.384883    3.456820    5.197565 
  45.935327   20.500041    3.390872 
  25.970664   18.284333   21.013108 
  39.700351   20.498554   20.122107 
  12.986626   10.577660    3.082164 
  50.362986   10.859543   19.615041 
  18.161723   10.456870    6.473492 
 151.233569    4.735755   17.439505 
 140.424215   10.526738    0.330875 
  50.583788    8.660130    7.986202 
 144.864720    5.476110    4.665799 
  20.565025   14.609893   10.887458 
  18.905891    4.937261    1.691837 
 157.491616    0.349989   19.165135 
  20.487816    7.825433   14.233411 
  13.026141    6.573508   11.559475 
 100.475609   14.992290    6.347117 
 157.618834    7.387358   17.227156 
  30.297870   17.472614    6.012811 
  28.920869    6.481942   20.258584 
  21.994834    0.059732   20.748031 
  59.234081   10.175719    9.050629 
  32.175549    1.531599    9.648178 
  32.607194   20.216065    6.781330 
 155.177424    7.642757   14.510942 
  16.107962    6.494850    9.296209 
  27.723582   15.078561   19.650572 
  41.650640   18.029240   21.028087 
  12.856538   13.615508    0.517763 
  41.915709   11.681661    2.488619 
 154.811214    9.587115    5.624755 
  59.049531   20.996276    4.769055 
  12.985378   19.159871    9.519577 
  18.210884   20.429380   15.838937 
  21.984609   18.628547    9.455550 
 157.512400   10.259743   15.669632 
  31.753474    2.755565    5.226650 
 114.729092   14.477130   12.297992 
  21.340398    9.392269   20.214947 
 157.611180    2.061423    0.848459 
 107.832917   15.044744    6.830677 
  27.696397   12.441824    0.800218 
  55.793987   14.492831    3.991719 
 157.484374   14.282376   16.240982 
  39.674438    7.343153   18.928354 
  44.316007    5.431494   10.949138 
  16.277059   16.054729    3.899786 
  34.372319    9.151235   19.231681 
  24.012843   17.766819    2.223132 
  25.497735    6.626232   17.267572 
  43.830416   15.219499   12.098051 
 154.406257    0.788245    3.983778 
 144.102070   15.490210    8.071794 
 149.600837    3.705040    4.104427 
  39.797412    9.577293    4.413153 
  48.522764   20.880407    9.938029 
 103.664662    0.209564   20.022863 
  25.097274    7.062553    8.338315 
 157.939863    5.739666   14.537230 
  12.707508    7.487449   21.574277 
  40.378652    0.422131    3.228806 
 157.752025    7.141726    6.373208 
 125.581827    7.369699   10.551879 
  20.468510   15.188552    1.193472 
 157.523942   20.719926   16.080781 
 154.686830    2.037611    7.675608 
  42.127562   11.499554   13.470136 
  32.037633   12.185030   18.968963 
  19.073003    3.792628   10.806690 
  45.226974    0.258667   10.061263 
  44.748300    2.991033   13.717811 
  12.963603   15.941096    6.102978 
 116.501343   12.116720   14.244089 
 157.686433    3.236613   16.464939 
  61.196737   18.300322   10.832266 
  32.996500   13.053533   10.785656 
  97.797541   21.074495    5.008161 
  15.940943   20.910345    0.642735 
  24.761968    3.005376    2.875169 
  18.861111    4.425020   17.429474 
  30.783121   14.761226   20.784754 
  79.378509    5.663564   19.143387 
  54.971589    6.275490    3.480355 
  44.340885    8.239966    9.219051 
 154.844173   17.580915   18.280899 
  33.557694   10.086096   15.906728 
 157.523598   18.996264    3.711385 
 157.903590    9.170178    0.104827 
  15.372159   17.529902    8.031158 
  42.239320   18.243021    9.877605 
  24.728295    6.755895    2.000360 
  48.040079    6.198786    7.981356 
  19.558515    3.146499   14.010057 
  48.599257   12.125288    8.374136 
  27.215368   15.536847    2.644955 
  36.650169   11.757687   11.197203 
  19.078218   15.241639    4.386258 
  16.665575   13.721573    1.790062 
  54.096564    1.994544   13.863705 
  20.911854   14.693251   14.611804 
  27.237735    1.217253    4.979062 
  45.396189   19.029627   11.691481 
  89.514454    2.320411    8.194523 
 157.804385   20.493443    0.423146 
  38.156429    1.851636   10.319309 
 148.536841    9.290810    8.496457 
  33.352567   14.917904   17.707192 
 154.558565    2.656494   18.743434 
  47.973921   18.070652    8.022839 
 157.720361   12.889160    6.972206 
  16.048223    2.029888   14.601986 
 157.365398   17.716356    8.972486 
  22.637407   11.762520   13.676318 
  13.082153    6.610852    7.802177 
  26.350948   11.768321   15.557097 
  21.373775    6.190485    0.195914 
  15.641241    8.299963   16.030966 
  25.186822   17.998204   16.490590 
 155.495222    6.622377   19.828527 
  18.445203    8.619136    0.652497 
  41.464714   20.443669   12.317562 
  53.254671    7.450258    6.190306 
  41.024212    4.625276    0.638851 
 157.749993    5.834941    0.616954 
  41.210517   15.759254    3.559141 
  29.626011   17.125800   17.162437 
  12.741096   16.052934    9.420205 
 154.340505    4.955069    4.314755 
  29.647324    1.434635   19.658097 
  27.337575    3.482469    0.174483 
  26.671491    1.716214   11.369016 
 123.312691   13.721251    8.891646 
  16.114809   18.693477   11.686129 
  13.228496   19.508822    2.270668 
  13.256015   17.407875   17.465177 
  50.221580    7.624815   14.534493 
  43.412126   17.293112    6.263658 
  25.444517   12.588333   19.653292 
  52.102854   21.127141    8.946275 
  15.751553    4.533896   12.023507 
  45.329760   11.484378   12.234364 
  77.226752   12.837291    2.492136 
 157.596017    0.980889   13.409516 
  13.577685   14.678370   15.475139 
  35.088402   17.577351   19.518372 
 151.757845    0.495035   20.709393 
  12.868263   13.657475    3.907356 
  27.735615    8.847278    6.176736 
  15.847589   11.290050    4.306900 
  30.707332   19.008836   14.005072 
  36.401733   16.336929   14.221122 
 119.997600    0.807888    5.432354 
  18.797984    7.004418   19.099738 
 151.559496    7.078567    4.517570 
 103.561760    7.783018    2.322903 
  37.844705   15.638811    5.081342 
  27.775802    4.539531    7.935779 
 157.311077    6.242081    9.666262 
  13.229386    2.889843   10.471605 
  19.257226   14.333803    7.996896 
 111.479824   14.546260    7.791523 
  32.819206    6.887228    0.041898 
  13.184171    1.476565    0.501512 
 154.380338   11.045729   13.248629 
  48.805529    2.604424    8.847316 
  28.949582   20.523590   17.143790 
  53.345339   13.587706   18.777584 
  29.738724    0.889687    7.191520 
  44.390156   14.190829    4.349067 
  37.917932   18.562208    9.115971 
 157.756639   12.716028    3.941268 
  42.769621   16.703603   18.050647 
  12.758804   20.498719   16.012725 
  34.894313    8.316958    6.644840 
 154.565114    5.090202   16.368034 
  21.842152    7.782278    4.119369 
  35.015974    4.152421   11.803680 
  38.370240   17.658577   16.594001 
  17.544530   13.143371   20.226493 
 157.677615    4.893613    3.952786 
  40.340751    4.106718    3.733341 
  24.660375   18.592883   11.793674 
  25.085667   14.419633   12.984296 
  50.747541   16.815843   17.222801 
  21.674806    8.434627    7.360761 
 118.872529    9.278141   21.546364 
  16.156379   10.826944   18.061189 
 114.516233   14.601898    1.058520 
  42.386482   13.402212   18.769162 
  28.857510   12.110850    4.971901 
  49.475676   14.796234   21.190492 
  23.275609    9.909650   17.016535 
  23.640020   21.271058    2.349509 
 150.972010   11.416858   20.145253 