System 
          1
 160.844879    0.000000    0.000000 
   0.000000   21.689760    0.000000 
   0.000000    0.000000   21.689760 
  Cu  C
  432  521
Cartesian  configuration=        29835
   0.000000    0.000000    0.000000 
   0.000000    1.807473    1.807473 
   1.982689    0.126500    1.771316 
   2.006193    1.856946   21.626938 
   0.000000    0.000000    3.614967 
   0.000000    1.807473    5.422440 
   1.988173   21.563665    5.460697 
   1.976464    1.834331    3.714275 
   0.000000    0.000000    7.229913 
   0.000000    1.807473    9.037407 
   1.967927    0.030228    9.104166 
   1.988552    1.766176    7.220505 
   0.000000    0.000000   10.844880 
   0.000000    1.807473   12.652353 
   1.950090   21.582433   12.562350 
   1.928538    1.855781   10.751322 
   0.000000    0.000000   14.459847 
   0.000000    1.807473   16.267320 
   1.985238   21.632647   16.246771 
   1.975629    1.766992   14.489883 
   0.000000    0.000000   18.074793 
   0.000000    1.807473   19.882287 
   2.041801    0.112673   19.903660 
   2.047146    1.829771   18.010678 
   0.000000    3.614967    0.000000 
   0.000000    5.422440    1.807473 
   2.107498    3.627620    1.760648 
   1.846627    5.482727   21.671745 
   0.000000    3.614967    3.614967 
   0.000000    5.422440    5.422440 
   2.017420    3.633628    5.474278 
   1.948029    5.298834    3.647027 
   0.000000    3.614967    7.229913 
   0.000000    5.422440    9.037407 
   1.971043    3.554176    8.919448 
   2.108029    5.306425    7.231611 
   0.000000    3.614967   10.844880 
   0.000000    5.422440   12.652353 
   1.981998    3.617754   12.577494 
   1.927303    5.401458   10.880401 
   0.000000    3.614967   14.459847 
   0.000000    5.422440   16.267320 
   2.021742    3.655655   16.175732 
   1.969425    5.441909   14.481886 
   0.000000    3.614967   18.074793 
   0.000000    5.422440   19.882287 
   1.944052    3.645230   19.785530 
   1.906023    5.413765   18.083665 
   0.000000    7.229913    0.000000 
   0.000000    9.037407    1.807473 
   2.017761    7.136378    1.841905 
   2.026099    9.054159    0.114005 
   0.000000    7.229913    3.614967 
   0.000000    9.037407    5.422440 
   1.990108    7.331814    5.462540 
   1.959564    9.078541    3.465444 
   0.000000    7.229913    7.229913 
   0.000000    9.037407    9.037407 
   2.011791    7.187642    9.086466 
   2.101596    9.054865    7.349103 
   0.000000    7.229913   10.844880 
   0.000000    9.037407   12.652353 
   1.891214    7.219013   12.625842 
   2.063599    9.104777   10.829434 
   0.000000    7.229913   14.459847 
   0.000000    9.037407   16.267320 
   2.035633    7.110035   16.246073 
   1.970745    8.986874   14.515948 
   0.000000    7.229913   18.074793 
   0.000000    9.037407   19.882287 
   2.060366    7.260859   19.919723 
   1.906682    8.982008   18.088779 
   0.000000   10.844880    0.000000 
   0.000000   12.652353    1.807473 
   1.934287   10.984358    1.792748 
   1.977255   12.644553   21.623370 
   0.000000   10.844880    3.614967 
   0.000000   12.652353    5.422440 
   1.947027   10.823164    5.386042 
   2.085647   12.753927    3.670997 
   0.000000   10.844880    7.229913 
   0.000000   12.652353    9.037407 
   2.004577   10.934534    9.071973 
   2.016795   12.758986    7.377445 
   0.000000   10.844880   10.844880 
   0.000000   12.652353   12.652353 
   2.025798   10.862587   12.725946 
   1.968226   12.657268   10.915165 
   0.000000   10.844880   14.459847 
   0.000000   12.652353   16.267320 
   1.980041   10.843193   16.160415 
   1.926425   12.752960   14.513361 
   0.000000   10.844880   18.074793 
   0.000000   12.652353   19.882287 
   2.023249   10.785447   19.879708 
   1.980391   12.569587   18.114491 
   0.000000   14.459847    0.000000 
   0.000000   16.267320    1.807473 
   1.976893   14.534104    1.845650 
   2.021945   16.221795   21.610309 
   0.000000   14.459847    3.614967 
   0.000000   16.267320    5.422440 
   2.129415   14.467045    5.519200 
   2.016545   16.278304    3.673608 
   0.000000   14.459847    7.229913 
   0.000000   16.267320    9.037407 
   2.046005   14.578628    9.103749 
   1.978796   16.261602    7.101142 
   0.000000   14.459847   10.844880 
   0.000000   16.267320   12.652353 
   2.069278   14.374068   12.749022 
   1.976725   16.238592   11.031617 
   0.000000   14.459847   14.459847 
   0.000000   16.267320   16.267320 
   1.924673   14.549016   16.498449 
   1.977756   16.162152   14.523060 
   0.000000   14.459847   18.074793 
   0.000000   16.267320   19.882287 
   2.064673   14.535558   19.806890 
   2.113214   16.419495   18.070100 
   0.000000   18.074793    0.000000 
   0.000000   19.882287    1.807473 
   1.907801   17.927524    1.736534 
   1.926699   19.943998    0.004973 
   0.000000   18.074793    3.614967 
   0.000000   19.882287    5.422440 
   2.027660   18.088807    5.414260 
   1.892774   19.915519    3.571263 
   0.000000   18.074793    7.229913 
   0.000000   19.882287    9.037407 
   1.974293   17.944045    9.104693 
   1.961567   19.804419    7.316790 
   0.000000   18.074793   10.844880 
   0.000000   19.882287   12.652353 
   1.968360   18.135961   12.625833 
   2.040094   19.802588   10.749716 
   0.000000   18.074793   14.459847 
   0.000000   19.882287   16.267320 
   1.916335   18.049628   16.270103 
   2.011620   19.800130   14.499066 
   0.000000   18.074793   18.074793 
   0.000000   19.882287   19.882287 
   1.951208   18.071721   19.882769 
   1.931169   19.860584   18.072984 
   3.936830    0.126255    0.062767 
   3.824764    1.799148    1.876132 
   5.718419    0.016708    1.899785 
   5.708658    1.834155    0.074967 
   3.757569    0.058128    3.675484 
   3.977105    1.900453    5.455178 
   5.790927    0.022648    5.364374 
   5.753993    1.906804    3.606053 
   3.754125    0.068291    7.201862 
   3.876602    1.737974    8.901031 
   5.752912   21.550988    8.857964 
   5.773122    1.840667    7.322781 
   3.957942   21.687828   10.771007 
   3.825860    1.845293   12.585372 
   5.729092    0.086543   12.646574 
   5.745171    1.775029   10.687202 
   3.897945    0.017929   14.443961 
   3.789840    1.861717   16.263895 
   5.678710    0.068805   16.409676 
   5.716445    1.807377   14.559119 
   3.897195   21.678013   18.085918 
   3.869700    1.883121   19.933513 
   5.852158    0.172295   19.862097 
   5.718490    1.862062   18.056365 
   3.819653    3.592143   21.649231 
   3.837062    5.458809    1.685901 
   5.669309    3.737647    1.710772 
   5.784210    5.431548    0.091480 
   3.907792    3.725950    3.531099 
   3.829438    5.495256    5.428620 
   5.793555    3.593872    5.549846 
   5.736517    5.523535    3.627540 
   3.960884    3.590299    7.316829 
   3.848020    5.366689    9.143083 
   5.741382    3.630118    9.080540 
   5.795166    5.370345    7.428395 
   3.889857    3.567286   10.784547 
   3.875112    5.378636   12.680804 
   5.763593    3.572651   12.687225 
   5.845674    5.431139   11.014680 
   3.826404    3.626188   14.431352 
   3.936880    5.446320   16.201146 
   5.649062    3.605613   16.373279 
   5.781710    5.362926   14.360134 
   3.859451    3.784536   18.103363 
   3.821043    5.360339   19.946636 
   5.786422    3.668572   19.895572 
   5.856815    5.552680   18.055206 
   3.907053    7.275622   21.655081 
   3.851556    9.018385    1.827083 
   5.786849    7.235859    1.928384 
   5.867576    9.014479    0.018878 
   3.811760    7.261685    3.652591 
   3.903557    9.060282    5.465139 
   5.820708    7.197140    5.467885 
   5.781204    9.013269    3.738115 
   3.954024    7.230495    7.281661 
   3.936201    9.006400    9.132536 
   5.881388    7.260760    9.064661 
   5.805916    9.071387    7.341500 
   3.960694    7.187469   10.907838 
   3.839783    9.211325   12.594623 
   5.822495    7.245696   12.668495 
   5.763054    9.013879   10.843546 
   3.923660    7.263695   14.277099 
   3.897642    8.920483   16.295685 
   5.749003    7.304734   16.131759 
   5.719545    9.112945   14.419722 
   3.900387    7.162096   18.099088 
   3.921330    9.022789   19.974666 
   5.788384    7.134804   19.964231 
   5.892393    8.909827   18.091260 
   3.920472   10.737236    0.011889 
   3.903700   12.623139    1.856223 
   5.716674   10.759876    1.866562 
   5.776414   12.617726   21.666883 
   3.878461   10.830573    3.698081 
   4.049954   12.610477    5.470822 
   5.869490   10.838887    5.431005 
   5.844405   12.625926    3.616502 
   3.928804   10.887161    7.238790 
   3.861430   12.653448    9.037064 
   5.834055   10.894054    9.198343 
   5.921692   12.607313    7.353662 
   3.925788   10.933603   10.861260 
   3.872996   12.652883   12.819594 
   5.867935   11.010459   12.772206 
   5.823480   12.729384   10.930202 
   3.812920   10.868092   14.489292 
   3.872818   12.596051   16.395508 
   5.803785   10.817592   16.325268 
   5.843879   12.733553   14.779661 
   3.871913   10.696383   18.076903 
   3.861959   12.543626   19.897427 
   5.759903   10.752610   19.781554 
   5.780728   12.560732   18.111980 
   3.814275   14.504481    0.080519 
   3.855794   16.271403    1.760678 
   5.745814   14.386065    1.829185 
   5.721216   16.160258    0.029031 
   3.891397   14.487031    3.677863 
   3.981442   16.367338    5.458598 
   5.778966   14.411040    5.551216 
   5.686947   16.212863    3.639770 
   3.885873   14.462358    7.293906 
   3.841419   16.166226    9.065439 
   5.677622   14.429490    9.170123 
   5.707185   16.225362    7.346461 
   3.878323   14.498754   11.037936 
   3.882310   16.309045   12.877411 
   5.690386   14.497034   12.861760 
   5.743214   16.246494   10.860950 
   3.876385   14.410540   14.526128 
   3.945386   16.251655   16.341919 
   5.861432   14.494938   16.462375 
   5.861731   16.279211   14.601267 
   3.956792   14.340166   18.098488 
   3.965879   16.272040   19.858232 
   5.691662   14.451766   19.883657 
   5.783994   16.385343   18.153497 
   3.961975   18.046553   21.604234 
   3.786629   19.911077    1.792246 
   5.678563   18.270451    1.846620 
   5.782354   19.975959   21.673592 
   3.752596   18.010043    3.509742 
   3.848769   19.929853    5.510423 
   5.723959   18.057788    5.415819 
   5.682193   19.890772    3.619835 
   3.860266   18.051622    7.305648 
   3.941970   19.872096    9.043005 
   5.718912   18.037400    9.021485 
   5.785891   19.873180    7.102728 
   3.889716   18.047950   10.913187 
   3.842763   19.892414   12.647559 
   5.810691   18.168422   12.701955 
   5.708972   19.858970   10.860025 
   3.893286   17.989356   14.572595 
   3.841825   19.849861   16.332239 
   5.846837   18.101187   16.372828 
   5.691528   20.025803   14.467295 
   3.995111   18.151885   18.112848 
   3.839013   19.951368   19.941167 
   5.828543   18.123382   19.922072 
   5.858149   19.876020   18.227687 
   7.713451    0.134727   21.653761 
   7.605842    1.716731    1.962718 
   9.784654    0.292954    1.793852 
   9.533060    1.833161   21.434596 
   7.748774   21.671086    3.763963 
   7.720406    1.953738    5.433897 
   9.785350   21.553683    5.504902 
   9.844959    1.799863    3.755462 
   7.610604   21.677617    7.082256 
   7.695317    1.781957    9.113550 
   9.584441    0.057390    9.098228 
   9.446074    1.747527    7.260833 
   7.615139   21.621537   10.888116 
   7.577930    1.819223   12.566942 
   9.666945   21.326604   12.612892 
   9.685622    1.732552   11.127356 
   7.587469   21.665759   14.534532 
   7.705942    1.863165   16.321638 
   9.599899    0.264448   16.383248 
   9.495426    1.688057   14.095703 
   7.686996    0.010525   18.124818 
   7.562248    1.953004   19.897067 
   9.678789   21.421317   19.853631 
   9.697903    1.810757   18.419740 
   7.638732    3.560462    0.190119 
   7.674771    5.522092    1.835872 
   9.683408    3.376920    1.756861 
   9.678385    5.443585    0.280808 
   7.738800    3.766778    3.577816 
   7.632977    5.395162    5.553618 
   9.768120    3.896426    5.419887 
   9.743894    5.394218    3.372384 
   7.804418    3.705807    7.379073 
   7.814017    5.327752    9.192929 
   9.813480    3.431952    9.204071 
   9.740980    5.435131    7.521221 
   7.754949    3.529931   10.862561 
   7.667478    5.462580   12.771486 
   9.784468    3.917956   12.702770 
   9.806451    5.566619   10.801456 
   7.558310    3.568314   14.511284 
   7.605841    5.446837   16.226901 
   9.795994    3.198261   16.182905 
   9.568014    5.399613   14.758245 
   7.691157    3.662512   18.047284 
   7.590223    5.340045   20.080728 
   9.537682    3.847227   19.855052 
   9.670146    5.327758   17.752056 
   7.669145    7.347425    0.146422 
   7.525011    9.006835    1.920726 
   9.653578    7.486681    1.963608 
   9.876006    8.836287   21.525403 
   7.722882    7.122234    3.692042 
   7.502506    8.978019    5.458446 
   9.646468    6.970372    5.509008 
   9.649933    8.988927    4.036869 
   7.757901    7.231903    7.339655 
   7.823208    9.088365    9.252757 
   9.861797    7.544978    9.173642 
   9.674241    9.080047    7.081243 
   7.852240    7.209077   10.870395 
   7.559994    9.083921   12.674246 
   9.684411    7.092066   12.778094 
   9.791689    9.212211   11.190676 
   7.621853    7.343939   14.479065 
   7.718629    9.096641   16.287166 
   9.690453    7.415866   16.292955 
   9.744753    9.061313   14.239044 
   7.792392    7.169792   18.059997 
   7.768709    8.844818   19.857140 
   9.860173    6.771581   19.820258 
   9.770606    8.956085   18.332734 
   7.727703   10.642878    0.012383 
   7.534751   12.561199    1.653585 
   9.527271   10.418863    1.769565 
   9.716366   12.463841    0.263097 
   7.755077   10.851513    3.700914 
   7.647287   12.645110    5.464794 
   9.759507   11.296934    5.454301 
   9.625738   12.514482    3.218078 
   7.887800   10.782551    7.226621 
   7.805209   12.654171    9.069430 
   9.996834   10.667863    9.252613 
   9.904873   12.586169    7.492629 
   7.751781   11.085970   11.011051 
   7.532793   12.753957   12.950439 
   9.619075   11.304111   12.762817 
   9.785453   12.889108   10.662700 
   7.657440   10.822319   14.586626 
   7.770010   12.589726   16.421660 
   9.807804   10.696783   16.316531 
   9.563021   12.784291   14.836059 
   7.836413   10.793041   18.162070 
   7.529689   12.534560   19.909580 
   9.904804   10.934512   19.955542 
   9.859890   12.794142   17.956007 
   7.718049   14.430075   21.602739 
   7.523963   16.253738    1.806205 
   9.681477   14.584232    1.816917 
   9.674362   16.397030   21.603347 
   7.674588   14.408720    3.626660 
   7.589430   16.216255    5.373180 
   9.919479   14.125911    5.274201 
   9.623966   16.089762    3.751798 
   7.673734   14.472997    7.159099 
   7.618492   16.220198    9.074789 
   9.724568   14.674404    8.981445 
   9.684612   16.093593    6.775516 
   7.726769   14.462093   10.894884 
   7.575361   16.272020   12.671876 
   9.584128   14.265286   12.737627 
   9.770914   16.279513   11.172241 
   7.724761   14.546223   14.619524 
   7.700197   16.323160   16.384652 
  10.040887   14.761140   16.297068 
   9.445379   16.273213   14.223064 
   7.843770   14.394532   18.200576 
   7.633170   16.303390   19.841084 
   9.767479   14.305127   19.975148 
   9.783356   16.284055   18.354136 
   7.693842   18.186256    0.091738 
   7.662490   20.087235    1.828568 
   9.630489   18.040881    2.030875 
   9.590366   19.884324    0.262588 
   7.616325   18.000214    3.629869 
   7.615496   19.777861    5.350077 
   9.613540   18.286931    5.288437 
   9.725825   20.013715    3.392924 
   7.633090   17.972261    7.225358 
   7.732142   19.919061    8.978064 
   9.677991   17.613244    8.943772 
   9.702744   19.698554    7.414562 
   7.704683   18.179220   10.878179 
   7.614048   19.899571   12.724489 
   9.592679   18.337377   12.791416 
   9.746505   19.593364   10.537372 
   7.561202   18.135589   14.610213 
   7.560582   19.908968   16.254279 
   9.895413   17.841374   16.181292 
   9.698291   20.020398   14.731423 
   7.829489   18.198735   18.111657 
   7.690312   19.891174   19.939025 
   9.654060   18.392011   19.938291 
   9.674129   19.882054   17.761442 
  24.344991    8.096508    4.379143 
  39.553727   15.902687    7.771130 
  32.199655   11.108496   11.586401 
  13.069084    7.772663    3.020436 
  15.931418   20.621439    4.021102 
  48.645757   21.452083    0.087971 
  44.776282   11.801354   11.812933 
  34.352942    4.994838    5.714206 
  44.469311   12.407092    5.639996 
  22.014902   15.740571   12.296216 
  43.154039    6.850745   17.345498 
  23.265100    1.168627   11.139708 
  56.054032    6.895490    1.076375 
  44.698931   18.662173    9.524897 
  30.962096    5.061129    7.349589 
  39.112226   12.681755   12.966265 
  18.091621   18.636888    5.385901 
  12.856399    7.018018   11.813893 
  35.635663   19.347283   12.275551 
  29.460573   10.442856   20.609389 
  33.883083   20.633839    9.794944 
  35.667832   19.021836   21.191597 
  27.814383    5.096211   19.992683 
  32.483748   10.364399    0.030216 
  31.683753    7.754298   11.022856 
  48.525045    2.743320   14.251867 
  22.284681   11.941523   11.248217 
  51.296909    0.021718   13.298925 
  31.008238   20.325553    3.855494 
  21.942069    9.506281    7.866758 
 157.647168   18.843795    2.304254 
  39.278798    5.446786   14.052611 
  39.734442    8.355167    2.810464 
  43.686357   20.016996   19.772983 
  15.891771   16.301358   20.829956 
  41.502063   18.007674   10.207075 
  30.956678   16.994411   18.953221 
  21.043050    3.656820   12.087247 
  49.044798    4.895911   20.718263 
  33.526706    2.638180    3.126319 
  40.989507    4.445834   18.515928 
 149.267543   12.366221    8.218640 
  38.292895   19.846129    4.110734 
  39.554721    0.795099    2.567034 
  51.584576   12.856121    6.027835 
  16.230200   20.836498   19.142108 
  12.843579    5.147610   15.222543 
  42.485621    8.612298    8.584865 
  24.711789   14.846323   17.552409 
 157.611609    9.405413   21.644716 
  31.228236    9.510749    2.958877 
  12.916932    0.570080   18.170089 
  34.410425   18.265914   15.414003 
  22.492640    4.457022   16.739704 
  18.941216   18.986039    9.127464 
  52.126647   15.639054   15.832113 
  36.876825   14.597760   10.973297 
  47.967603   16.850159    0.914205 
  52.040859   12.474649   17.973504 
  53.057162   20.455721   10.206013 
  31.016631   18.012409    9.524882 
  50.214703    9.783687   17.383058 
  33.917494    5.968230    2.460682 
  48.995897    6.606250   18.070850 
  43.636666    2.742573   20.315611 
  30.456225    2.772238    4.952793 
  19.048116    1.652216   20.257480 
  53.775657    6.874941   10.695201 
  15.798697    8.673863   13.214203 
  52.314911    0.757559    2.311971 
  56.596947    1.547578    9.488964 
  24.571429   19.002514   21.121483 
  18.528858   14.736655    7.206362 
  29.229643    1.834245    1.905299 
  18.081057   13.033335    0.247105 
  46.433133   20.888090    7.851488 
  96.046435    6.754347   12.430081 
  22.332464   17.512701   18.499588 
  42.077345   14.723106   13.014517 
  49.416673    9.928410   13.093403 
  50.203202   21.078061   18.232871 
  45.077566   17.217767   17.353051 
  41.099502    5.169673    8.542421 
  42.431511    3.498952   15.711111 
  22.508401   13.562320    7.544328 
  19.171123    8.354766   16.180564 
  49.428908    2.389920    2.766646 
  24.972218   13.980486   14.283954 
  16.101128    3.525149    8.686508 
  34.854912   17.186824    9.513956 
  48.937752    1.774868    6.298461 
 109.336295    8.677098    9.613878 
  32.689027    2.427278    9.665501 
  44.082465    0.775541   16.469126 
  37.629167    5.315313    8.109235 
  36.469827   13.545618   16.712124 
 157.894540   15.091380    2.425689 
  24.172454    4.999261    6.227537 
  45.114602   10.718410    8.784728 
  17.151812   11.530943    7.467200 
  15.886535   20.702605    8.226191 
  23.935181    1.427048    4.888049 
  16.021068   10.760923   15.909423 
  38.228872    3.815353   16.762178 
  33.212385   12.691921    5.461637 
 143.299123   12.355092   18.546045 
  24.396393   16.991552    6.989086 
  29.897934   14.665565    5.574128 
  30.434136    8.470982   14.064793 
  29.515996   10.771088    5.740768 
  21.102658   13.209133   18.234980 
  26.850360   16.223886   12.435427 
  38.365132   16.648803   21.216904 
  56.630886    2.410895    0.264895 
  36.252073    1.169781   11.304517 
  18.897314   13.121578   10.136731 
  37.961136   21.461399    7.198957 
  18.805702    4.826016   14.924167 
  12.734533    2.772933    5.876255 
  13.145961    7.208510   18.359915 
  36.131189    8.819155    7.541985 
  36.907305   10.589483    0.557498 
  56.066392   15.542318    0.429120 
  12.974226   12.568919    3.151085 
  26.334494   11.538566    4.777990 
  54.690530   20.156613    3.649511 
  16.574644   14.308465   17.094384 
 157.559768   14.175866    6.003102 
  45.648726    7.821996    7.611482 
  54.678898    4.290522   16.552952 
  43.278441   13.977106   16.853534 
 157.255275    8.957054    9.548874 
  13.105663   18.486376   17.925775 
  37.716609   17.165593   17.481219 
  35.408236   11.191134   10.607123 
  12.779384    2.844204   21.310860 
  46.419077    3.274212   17.204568 
  13.050191    6.615535   21.565514 
  46.149151    8.543936   12.640835 
  33.642454    2.953202   21.156467 
  22.456577    3.570640   21.362410 
  22.175436   11.313205   21.129226 
  48.577373    5.038670   11.916654 
  16.076069   10.742117    2.427741 
  41.004010   19.515746    1.916413 
  16.192991   14.576080    4.794419 
  12.871043   15.977328    9.097741 
  47.467245   15.155910   18.994898 
  32.358002   19.657409   12.593044 
  31.466558   13.222262   18.872370 
  33.507205   21.225396    0.807812 
  27.666754   16.672211    8.901252 
  44.405303    3.694094    8.308099 
  35.148725   21.595719    5.441885 
  39.013232    2.646163   10.200241 
  49.024218   12.773667   16.518584 
  41.690521    3.234825   12.164121 
  42.912107    0.581885    3.755433 
  46.200078    8.553301   16.706250 
  39.575860    7.937139    6.468744 
  35.390799    4.227352   15.529541 
  39.707377   11.596591   16.534956 
  24.716516   15.543236   10.041746 
  31.136591   14.862030   15.977473 
  16.222001   16.512924   14.376719 
  33.174412    0.969563   12.849489 
  13.050143   14.043390    0.021040 
  18.864858    6.400907   11.901961 
  54.381900   21.438177    7.223935 
  54.079375   17.933454   21.366076 
  39.470665   16.672593    3.875336 
  29.164845   19.538873    0.647735 
  52.547903    1.323106   16.320552 
  35.649351    0.288980   14.851474 
  47.857791    8.426478    4.602382 
  33.627490   11.184143   17.035186 
  35.806190    7.382273    0.118576 
  15.754091    5.353398    5.299833 
 157.547530    7.933289    4.002915 
  34.361099   12.518434    2.233006 
  39.766652   20.458969   20.076542 
  18.883350    5.551842    0.282213 
  12.847721    8.301208    8.485991 
  42.545816   13.284536    9.192451 
  23.769642   11.366827   17.594800 
  28.935392    2.674936    8.541172 
  19.567903    9.557455   12.283485 
  46.401195   16.886818    7.000844 
  38.942425   19.410758   15.113941 
  24.520206    7.420433   15.471114 
  50.696881    2.169305   20.988467 
 125.818760   10.746508    4.666366 
  13.354149    8.935260   15.244455 
  13.201976    3.139564   11.716370 
  12.784111   16.030230   15.520094 
  51.566412   12.664668   14.047744 
  41.196932   21.432608    8.828602 
  12.830857   10.397238   12.115410 
  12.646977    3.883018   18.172296 
  19.507371   19.660049   19.281061 
  34.423586    5.806109    9.381166 
  12.647269   21.084198   21.374470 
  27.595437    5.177250    6.574621 
  50.834596    9.384441    5.174701 
  13.294639   15.557718    2.913707 
  24.158221    4.142195   13.898670 
  21.701567   19.335983   12.628380 
  29.820252    4.069970   12.280494 
  47.887153   12.976631   13.417966 
  37.790019   10.622721    4.617584 
  15.912368    1.274833    0.567593 
  48.669735   18.824635    8.954553 
  46.052859   10.559563    2.768933 
  48.519177   17.018207    4.169272 
  36.272205    1.714426    1.620593 
  33.876670   15.502610   18.123085 
  20.166038    0.358736    1.767863 
  40.815008   10.711398    0.091548 
  20.242001   16.272527   21.190176 
  51.432396    7.375414   21.534308 
  19.304065   12.316836   15.154374 
  53.440589    6.376025   19.119765 
  28.205889   20.250897    8.182006 
  17.041925    7.876219   19.223372 
  25.816566   17.699465    4.161413 
  23.885099    8.753204   11.834731 
  18.900132    5.210087   18.126652 
  36.684107   10.178673   15.719121 
  27.276846   12.379262   17.995859 
  53.541184    9.596610    8.251434 
  25.626429    2.143142    8.440902 
  13.415669    0.860650    2.637289 
  85.573879   20.241854    6.474504 
  26.722788   11.220885   15.094943 
  15.414661   13.760106    9.615465 
  34.267485   18.828237    2.896160 
 157.633650    3.049076   11.248671 
  15.901825    6.937817    1.476207 
  12.760182   17.227606    5.735101 
  15.427515   12.361782   19.835261 
  34.642607    8.516293   13.718468 
  25.230992    4.834044    3.178137 
  12.928002    4.132352    2.703403 
  38.592649   11.376613   19.525273 
  30.206577    0.023857   10.461282 
 130.980500    2.099056   18.093227 
  42.161980    0.589231    0.169117 
  30.762971    0.395721   20.958267 
  22.684795   19.699722    2.956310 
  51.178556    1.885603    9.256431 
  12.765628    1.874788   15.063651 
  42.606317    6.272216   21.210523 
  28.067366   18.398830   15.042356 
  50.287960   19.480305    2.397477 
  13.180847   14.096049    6.239715 
  53.953148    8.783490   16.717278 
  34.549847    9.151564    4.048841 
  20.813732   13.453241    2.100977 
  44.853459   20.313405    1.733313 
  18.560259    8.674894    9.261836 
  19.013065   18.960420    1.400658 
  55.037943   12.265221   16.612844 
  47.067379   18.409034   13.915886 
  12.944516   20.968191    5.865101 
  35.790643   17.192871    6.180574 
  50.619087   15.086755   11.699568 
  23.466462   11.269863    3.286389 
  55.638296   12.361592    2.901807 
  99.197040    6.224543    8.930824 
  37.120261   13.580554    7.745855 
  13.079622   10.070453    5.430500 
  32.368470   18.449636    0.081507 
  48.284109    6.984995   14.529935 
  19.021049   19.003393   14.746371 
  36.862697   14.166493    4.127925 
  39.399596   20.441773   11.779309 
  15.761427    1.689664   13.416252 
  50.003446   10.211565    8.166442 
  28.007617    6.086394    9.673472 
  53.440798   13.925058   21.244250 
  15.899252   17.044819    7.202060 
  42.353275   21.514607   13.836004 
  18.872654   16.010091   12.478228 
  13.037638   13.957482   11.822561 
  36.366700    8.844109   18.918127 
  15.873355   19.600425   12.873406 
  38.357994    8.813801   12.795173 
  21.869958   21.338041    8.675831 
  46.139800   13.928653    8.290843 
  39.229166    7.113654   19.909285 
  28.693079    9.784807   11.489201 
  48.269166   11.693479    5.146205 
  27.229578    3.395650   14.467313 
  55.418832   16.402334   16.985983 
  48.959873   15.871902   14.622583 
  45.636619    1.562876   13.496586 
  15.547415   10.602841   10.517504 
  39.472279   17.014768   12.665363 
  27.521370    7.870249    1.428459 
  31.313897    4.189627   19.132498 
  26.075002   12.516614    0.104947 
  32.098939    8.207970    6.575804 
  31.639391   14.883997    8.324368 
  22.858255    8.347650   17.943390 
  16.575089   13.154997   13.397619 
  28.365626   10.318857   20.558384 
  58.964926    5.402026    1.571892 
  23.412716    0.516249    0.584082 
  15.998680   21.157756   15.784101 
  12.960367   14.611268   18.523294 
  55.111586   19.797427   17.280693 
  26.699493   14.436370    6.887243 
  22.173600    6.807383    1.226272 
  37.639617    2.522402    4.867576 
  54.510659   17.716062   12.618457 
  34.638272   12.557615   13.948706 
  40.994716   11.440075    6.925320 
  40.785172    7.286738   10.916742 
  15.763861   19.631311    0.769991 
  42.852141   15.314946    5.140358 
  13.232302   10.234604    0.276307 
  35.176135   13.006545   19.931978 
  16.125013    4.062772   20.084144 
  36.684806   15.506205   14.072511 
  33.228850    4.702852   12.869658 
  20.977252    7.343511    5.528590 
  50.040491   12.901947    1.797931 
  35.688409   15.584984    1.323900 
  27.592818   15.397501   15.967400 
  40.785683    0.642560   16.824689 
 157.628998    1.840661   15.466759 
 156.671681   18.272962   20.634662 
  28.083746    8.158630    4.720578 
  13.016627   17.332546   21.455152 
  47.210578   15.708721   11.610819 
  44.207856    5.445002    4.888606 
  49.908550    3.312433   17.828400 
  19.048247    2.742322   20.541099 
  51.195030   16.334178    0.574329 
  18.485404    6.682771    3.319196 
  41.605384   15.370235    1.694726 
  24.595141    7.808333    8.144240 
  54.732066    5.805320    6.519960 
  33.111670   15.624831    3.725831 
  39.032788    1.976359   14.267332 
  26.198563   21.066440    2.347957 
  51.591945    5.635955   15.135201 
  45.240412   17.343889    3.841939 
  13.025894    4.867638    8.730172 
 157.251904   15.534703   16.559604 
  45.164986    5.897777   10.988413 
  42.480596   18.410429    6.915849 
  12.844790   12.605917   14.866866 
  16.261901    8.526053    5.946580 
  27.203644   14.459968    3.274668 
  25.900705    4.677087   17.272431 
  43.330490    3.415606    2.047950 
  33.967310    6.969829   18.183928 
  38.491499    4.265149    1.317882 
  16.232059   17.212311   10.706178 
  43.707245   10.764463   15.268183 
  43.973936   17.147093    0.026311 
  36.031308    4.512548   19.141081 
  30.025495   12.971225    2.241197 
  19.100936   10.333825   19.064566 
  46.335464    0.948974   19.458337 
  12.854548   10.931967   18.044694 
  53.012289   10.814492    1.176214 
  21.844687    5.767311    9.188073 
  28.514089    8.505280    7.891648 
  31.883402    3.566690   15.873535 
  30.819623    7.948600   17.833776 
  48.568175    6.908498    9.036891 