System 
          1
 160.844879    0.000000    0.000000 
   0.000000   21.689760    0.000000 
   0.000000    0.000000   21.689760 
  Cu  C
  432  521
Cartesian  configuration=        1
   0.000000    0.000000    0.000000 
   0.000000    1.807473    1.807473 
   1.996280   21.536937    1.848972 
   1.984775    1.898079    0.146680 
   0.000000    0.000000    3.614967 
   0.000000    1.807473    5.422440 
   2.052496   21.635542    5.391529 
   2.026830    1.632666    3.574511 
   0.000000    0.000000    7.229913 
   0.000000    1.807473    9.037407 
   2.079730   21.662673    8.941797 
   2.060796    1.842264    7.221781 
   0.000000    0.000000   10.844880 
   0.000000    1.807473   12.652353 
   2.013416   21.675716   12.678993 
   1.989428    1.805215   10.835061 
   0.000000    0.000000   14.459847 
   0.000000    1.807473   16.267320 
   1.957875    0.019869   16.191147 
   2.117745    1.796662   14.375578 
   0.000000    0.000000   18.074793 
   0.000000    1.807473   19.882287 
   2.012870   21.672174   19.948780 
   2.045799    1.819623   18.190508 
   0.000000    3.614967    0.000000 
   0.000000    5.422440    1.807473 
   2.010556    3.679505    1.939002 
   1.977739    5.324198    0.032246 
   0.000000    3.614967    3.614967 
   0.000000    5.422440    5.422440 
   2.059045    3.546828    5.217720 
   1.969044    5.538027    3.561994 
   0.000000    3.614967    7.229913 
   0.000000    5.422440    9.037407 
   2.004111    3.549360    8.985018 
   1.978632    5.317964    7.125460 
   0.000000    3.614967   10.844880 
   0.000000    5.422440   12.652353 
   1.949215    3.648806   12.614751 
   2.064550    5.398636   10.796454 
   0.000000    3.614967   14.459847 
   0.000000    5.422440   16.267320 
   2.111718    3.600503   16.222005 
   1.972000    5.473957   14.475386 
   0.000000    3.614967   18.074793 
   0.000000    5.422440   19.882287 
   1.954549    3.611076   19.965518 
   2.043994    5.436835   17.996199 
   0.000000    7.229913    0.000000 
   0.000000    9.037407    1.807473 
   1.966872    7.187963    1.687627 
   2.064246    9.100591    0.019838 
   0.000000    7.229913    3.614967 
   0.000000    9.037407    5.422440 
   1.983858    7.208988    5.408954 
   2.096314    8.919188    3.497535 
   0.000000    7.229913    7.229913 
   0.000000    9.037407    9.037407 
   1.948956    7.124375    9.019666 
   1.987316    8.967060    7.213944 
   0.000000    7.229913   10.844880 
   0.000000    9.037407   12.652353 
   2.041449    7.122780   12.724615 
   1.928573    8.863086   10.783873 
   0.000000    7.229913   14.459847 
   0.000000    9.037407   16.267320 
   2.042800    7.268782   16.275345 
   2.036745    9.001616   14.371282 
   0.000000    7.229913   18.074793 
   0.000000    9.037407   19.882287 
   2.156519    7.272471   19.870309 
   2.106482    9.123526   18.036737 
   0.000000   10.844880    0.000000 
   0.000000   12.652353    1.807473 
   2.037870   10.775198    1.881990 
   2.018909   12.716877   21.684791 
   0.000000   10.844880    3.614967 
   0.000000   12.652353    5.422440 
   1.955863   10.714022    5.335111 
   2.004343   12.665872    3.595644 
   0.000000   10.844880    7.229913 
   0.000000   12.652353    9.037407 
   1.956585   10.810423    8.989683 
   1.988966   12.553875    7.215954 
   0.000000   10.844880   10.844880 
   0.000000   12.652353   12.652353 
   1.937063   10.873420   12.638065 
   2.025421   12.580999   10.895121 
   0.000000   10.844880   14.459847 
   0.000000   12.652353   16.267320 
   2.090632   10.923997   16.203832 
   2.005198   12.793174   14.474392 
   0.000000   10.844880   18.074793 
   0.000000   12.652353   19.882287 
   2.083245   10.890976   19.854319 
   2.028380   12.730287   18.012228 
   0.000000   14.459847    0.000000 
   0.000000   16.267320    1.807473 
   1.969602   14.484677    1.787598 
   1.960735   16.205436   21.627744 
   0.000000   14.459847    3.614967 
   0.000000   16.267320    5.422440 
   1.977332   14.465623    5.515217 
   2.068833   16.161632    3.766676 
   0.000000   14.459847    7.229913 
   0.000000   16.267320    9.037407 
   2.009104   14.299552    9.006442 
   2.016341   16.241011    7.300430 
   0.000000   14.459847   10.844880 
   0.000000   16.267320   12.652353 
   2.038716   14.466395   12.580538 
   2.028637   16.255865   10.785312 
   0.000000   14.459847   14.459847 
   0.000000   16.267320   16.267320 
   2.035708   14.663468   16.267231 
   1.976859   16.284039   14.328451 
   0.000000   14.459847   18.074793 
   0.000000   16.267320   19.882287 
   1.921450   14.407405   19.873363 
   1.975803   16.385436   18.077264 
   0.000000   18.074793    0.000000 
   0.000000   19.882287    1.807473 
   1.877816   18.033939    1.762147 
   2.012070   19.730770   21.643860 
   0.000000   18.074793    3.614967 
   0.000000   19.882287    5.422440 
   1.851608   17.997306    5.533876 
   1.904603   19.802124    3.674829 
   0.000000   18.074793    7.229913 
   0.000000   19.882287    9.037407 
   2.003792   18.097454    9.055815 
   2.156077   19.951033    7.191502 
   0.000000   18.074793   10.844880 
   0.000000   19.882287   12.652353 
   1.958202   18.156954   12.630547 
   1.991266   19.930009   10.830800 
   0.000000   18.074793   14.459847 
   0.000000   19.882287   16.267320 
   1.945936   18.078878   16.186234 
   2.092850   19.875642   14.382270 
   0.000000   18.074793   18.074793 
   0.000000   19.882287   19.882287 
   1.994766   18.086931   19.822719 
   2.045751   19.993716   18.024378 
   3.867196   21.522510    0.059722 
   3.916644    1.711703    1.915138 
   5.870293   21.605852    1.765346 
   5.835415    1.754869    0.102190 
   3.931257   21.583735    3.551564 
   3.945334    1.801379    5.274679 
   5.740036    0.091442    5.358961 
   5.885344    1.734711    3.505979 
   4.002336    0.072668    7.144828 
   3.994621    1.753281    8.980533 
   5.828014    0.040082    9.050433 
   5.783421    1.918629    7.217253 
   3.885840    0.029053   10.777597 
   3.907971    1.802888   12.686990 
   5.894152    0.071176   12.664348 
   5.790813    1.844355   10.917102 
   4.014533    0.013615   14.519086 
   3.932269    1.852294   16.273830 
   5.834521    0.013963   16.226018 
   5.832691    1.974609   14.493745 
   3.977243    0.110730   18.086212 
   3.934422    1.819591   19.970728 
   5.866657   21.610677   19.980304 
   5.765053    1.824005   18.096346 
   3.929197    3.609192    0.058721 
   3.820516    5.405040    1.859833 
   5.944092    3.629286    1.821623 
   5.994099    5.428420    0.051589 
   3.958771    3.614557    3.656105 
   3.899484    5.463846    5.278043 
   5.967853    3.507699    5.335665 
   5.851010    5.493900    3.623882 
   3.968119    3.676733    7.115965 
   3.807532    5.433259    8.935984 
   5.860562    3.714185    9.017605 
   5.898657    5.388159    7.042060 
   3.974082    3.576877   10.781775 
   3.940109    5.421357   12.570385 
   5.830482    3.625572   12.702343 
   5.752784    5.362075   10.837127 
   3.892481    3.708349   14.437494 
   3.955141    5.359793   16.311546 
   5.793233    3.597403   16.352338 
   5.848276    5.347789   14.423595 
   3.949886    3.519802   18.215489 
   3.914883    5.385441   20.007655 
   5.862721    3.510296   19.977104 
   5.762832    5.417719   18.076809 
   4.010661    7.209819    0.011039 
   3.892949    9.075453    1.778126 
   5.833077    7.173880    1.775393 
   5.766642    9.179522    0.059477 
   3.880086    7.220582    3.449217 
   3.894020    8.876252    5.290961 
   5.793662    7.257142    5.403721 
   5.807382    8.938486    3.634794 
   3.781303    7.175760    7.177821 
   3.878500    9.007217    8.963337 
   5.771565    7.140778    9.044489 
   5.781254    8.860560    7.168385 
   3.776278    7.261331   10.793310 
   3.884385    8.937779   12.704863 
   5.934367    7.257986   12.691770 
   5.854400    8.967138   10.824953 
   4.004374    7.149140   14.540052 
   3.957761    8.933718   16.332460 
   5.883423    7.141944   16.246447 
   5.703461    9.052857   14.528358 
   3.927355    7.167083   18.193533 
   3.959804    9.183654   19.945156 
   5.890704    7.334822   19.964363 
   5.825277    9.093540   18.005241 
   3.837691   10.989002   21.655457 
   3.827039   12.690680    1.886386 
   5.775175   10.865113    1.812171 
   5.779088   12.726339    0.127485 
   3.944755   10.844018    3.588363 
   3.789313   12.527786    5.400465 
   5.709990   10.822555    5.418374 
   5.740972   12.772975    3.668352 
   3.855702   10.660402    7.098418 
   3.906769   12.527740    8.987609 
   5.684474   10.733519    8.977465 
   5.645023   12.602054    7.240680 
   3.771340   10.793117   10.737083 
   3.887426   12.600473   12.649869 
   5.706161   10.788093   12.520609 
   5.840342   12.686487   10.707466 
   3.856756   10.821744   14.412314 
   3.841532   12.743842   16.123439 
   5.796003   11.108559   16.288296 
   5.647052   12.743429   14.343843 
   3.928784   10.945740   18.050864 
   3.927022   12.778230   20.016784 
   5.758655   11.013776   19.863017 
   5.683105   12.817230   18.067956 
   3.830699   14.495217    0.146131 
   3.759859   16.318557    1.872801 
   5.740621   14.624259    1.805442 
   5.804277   16.353893   21.660733 
   3.912603   14.457224    3.740306 
   3.940393   16.361188    5.511262 
   5.684131   14.474426    5.557959 
   5.769611   16.322110    3.688389 
   3.876606   14.503420    7.222932 
   3.849821   16.322533    9.049369 
   5.742786   14.504184    9.042176 
   5.821214   16.427152    7.286176 
   3.915377   14.538469   10.677834 
   3.906772   16.346178   12.546730 
   5.677687   14.472552   12.531238 
   5.926838   16.333563   10.919905 
   3.915393   14.637221   14.322746 
   3.944193   16.427999   16.165724 
   5.679655   14.528637   16.212187 
   5.842519   16.322498   14.363540 
   3.846527   14.588968   18.103753 
   3.805147   16.213408   20.039581 
   5.829181   14.488614   19.960103 
   5.740469   16.285184   18.041388 
   3.873662   17.937610    0.121813 
   3.856016   19.753616    1.892447 
   5.812255   18.012504    1.907551 
   5.912837   19.756305    0.033724 
   3.862739   18.087929    3.606620 
   3.891014   19.907455    5.404578 
   5.836694   18.252190    5.478213 
   5.873615   19.986276    3.636406 
   3.853734   18.071011    7.281649 
   3.938646   19.969985    8.945419 
   5.713410   18.274800    8.982607 
   5.896644   19.969086    7.299164 
   3.950908   18.272926   10.709341 
   3.965351   20.061292   12.618599 
   5.806753   18.133642   12.642521 
   5.780205   19.977260   10.848283 
   3.969410   18.119971   14.358986 
   3.870476   19.919163   16.238322 
   5.827150   18.163226   16.234383 
   5.895683   19.921940   14.415224 
   3.944387   18.052756   18.030740 
   3.886947   19.837495   19.955739 
   5.726634   18.103591   19.978025 
   5.646602   19.850886   18.094410 
   7.700906   21.552845   21.686873 
   7.753101    1.727002    1.670178 
   9.889870   21.627592    1.996722 
   9.750128    1.485089   21.578552 
   7.789590   21.618983    3.485056 
   7.770497    1.741096    5.260745 
   9.714485   21.664497    5.230022 
   9.857189    1.830252    3.740910 
   7.721649    0.127460    7.194790 
   7.552661    1.870154    9.087725 
   9.622351    0.255624    9.044617 
   9.820036    1.929456    7.226285 
   7.618024    0.045818   10.900990 
   7.817700    1.833779   12.788614 
   9.778733   21.443552   12.749840 
   9.821198    1.642272   11.033799 
   7.739134   21.642937   14.439372 
   7.726279    1.679841   16.318492 
   9.856341    0.208936   16.020966 
   9.768169    1.960171   14.310686 
   7.658805   21.580604   18.069230 
   7.624351    1.644213   19.978553 
   9.767577   21.244124   20.004026 
   9.541144    1.476831   18.343366 
   7.808858    3.611051   21.651879 
   7.902754    5.442975    1.625457 
   9.781153    3.453062    1.717511 
   9.954683    5.437260   21.575197 
   7.814868    3.652871    3.585509 
   7.909556    5.470629    5.426422 
   9.854526    3.824646    5.358663 
   9.951757    5.572908    3.529506 
   7.840896    3.597986    7.211263 
   7.729007    5.359916    8.965883 
   9.558027    3.437930    9.162866 
   9.865133    5.397724    7.538972 
   7.743922    3.523671   10.888221 
   7.808838    5.462407   12.554869 
   9.792070    3.725999   12.612360 
   9.847738    5.530968   10.695835 
   7.668966    3.592912   14.566197 
   7.821101    5.322768   16.406813 
   9.728441    3.312928   16.573409 
   9.722956    5.172849   14.835103 
   7.598836    3.507578   18.223435 
   7.730322    5.349520   19.790185 
   9.614742    3.583007   19.921224 
   9.733723    5.496794   18.054741 
   7.759187    7.313206   21.653462 
   7.669416    9.050692    1.899804 
   9.714944    7.441070    1.649014 
   9.623169    9.236806   21.498639 
   7.845429    7.187650    3.507838 
   7.781724    8.929332    5.277035 
   9.862324    7.246367    5.676310 
   9.873351    8.814378    3.712459 
   7.648159    7.239888    7.294315 
   7.623622    9.007994    9.020972 
   9.642165    7.451568    9.048703 
   9.759037    9.237679    7.109661 
   7.766979    7.208086   10.756296 
   7.706276    9.046908   12.796624 
   9.778489    7.099202   13.119557 
   9.696143    8.902193   11.132950 
   7.694570    7.170986   14.506714 
   7.623824    9.137022   16.119416 
   9.528854    7.320299   16.298610 
   9.681878    9.208099   14.478983 
   7.639203    7.214411   18.009994 
   7.618024    9.082210   19.724620 
   9.676919    7.362400   19.946716 
   9.506204    9.090821   18.148112 
   7.650020   10.890129   21.666462 
   7.671884   12.629332    1.846100 
   9.687319   10.714921    1.955922 
   9.704903   12.561378    0.137682 
   7.618497   10.836895    3.684008 
   7.609456   12.672463    5.473864 
   9.554058   10.869262    5.241153 
   9.695675   12.908332    3.443619 
   7.557191   10.671278    7.154071 
   7.611712   12.585357    8.947602 
   9.644061   10.730848    9.131792 
   9.603611   12.411556    7.221044 
   7.677797   10.797951   10.798814 
   7.511878   12.635411   12.583566 
   9.509427   11.073078   12.630715 
   9.704560   12.598858   10.740005 
   7.513853   10.999974   14.486515 
   7.650422   12.757984   16.265589 
   9.566279   10.747301   16.454697 
   9.540214   12.602808   14.609880 
   7.631012   10.863500   18.026525 
   7.666540   12.571821   19.771435 
   9.925753   10.945757   19.691954 
   9.740763   12.854602   18.018820 
   7.703487   14.468256    0.137331 
   7.686462   16.231017    1.889383 
   9.718086   14.642836    1.717188 
   9.839407   16.475730   21.593305 
   7.654623   14.474638    3.698220 
   7.735271   16.258894    5.588121 
   9.684051   14.275978    5.579468 
   9.498256   16.123075    3.827364 
   7.566923   14.353403    7.293524 
   7.792263   16.356663    9.063086 
   9.613994   14.270731    8.983635 
   9.751181   16.081667    7.317932 
   7.702053   14.464949   10.697310 
   7.769510   16.355225   12.494504 
   9.637414   14.351395   12.577590 
   9.772472   16.136008   10.722157 
   7.639074   14.418199   14.419446 
   7.649462   16.154529   16.190055 
   9.748680   14.698400   15.946125 
   9.852353   16.449915   14.115289 
   7.669449   14.427722   18.110758 
   7.685884   16.331808   19.946929 
   9.659867   14.311559   19.977328 
   9.723031   16.106501   18.206334 
   7.760032   18.036616    0.042522 
   7.781750   19.821428    1.887266 
   9.705977   17.687558    2.066766 
   9.794193   19.751148    0.332610 
   7.712691   18.064902    3.788879 
   7.789117   19.895921    5.479913 
   9.778125   18.016137    5.548226 
   9.755820   19.744088    3.662562 
   7.691829   18.127159    7.314242 
   7.850177   19.966198    8.931372 
   9.797816   18.132181    8.939350 
   9.734722   20.025911    7.294146 
   7.726444   18.156241   10.733536 
   7.681827   19.911641   12.563754 
   9.796759   18.254050   12.482037 
   9.644597   20.015149   10.719859 
   7.714056   18.053863   14.413386 
   7.769319   19.893654   16.332657 
   9.763019   17.852957   16.287384 
   9.548716   19.795113   14.736197 
   7.725016   17.963977   18.080996 
   7.583166   19.768447   19.791516 
   9.672174   18.282368   19.819738 
   9.793774   19.983881   17.795534 
  63.919510   15.287844   19.661044 
  23.129434    7.857819    7.242229 
  27.485634   19.500195   19.074557 
  12.948625   16.110804    8.917915 
  26.152248    5.365434    7.750958 
  19.913930   10.999808   21.008515 
  15.282497    6.574487   14.630330 
  42.698487    3.961564   16.084259 
  57.827261    0.110020   18.397634 
  33.790706    8.424466    6.964482 
  38.416941   12.950872   12.458251 
  47.051813    6.417683   19.449142 
  16.040749    4.064651   12.098388 
  49.182158    6.703370   10.004146 
  47.372581   18.068331   18.718833 
  56.173655    7.545284    3.521543 
  20.061070    9.846534    2.386965 
  13.185663    3.114126   18.482887 
  32.139199   12.807626    8.956029 
  43.349894    1.160046    3.821598 
  16.872277    8.872352    3.985831 
  34.863970    4.574362    2.974339 
  43.985767    6.722511    8.105236 
  49.395425   14.091880    0.849098 
  30.903026    7.560291   11.959635 
  29.853459    0.372166    5.549356 
  30.019626   21.548450   14.293834 
  16.536228   14.194870   11.472923 
  46.681863    4.823931   15.304715 
  19.068213   17.972534   13.640466 
  55.075199   18.684584   11.524244 
  38.467035   20.957857    8.936620 
  20.131121   14.079235   11.132729 
  36.365750    7.375199    9.809960 
  46.985325   19.633126    9.072164 
  22.086750    7.501780    2.291839 
  43.205395   16.514742    1.491777 
  33.523712   13.793786   19.430251 
  21.346808   17.970650    6.940847 
  36.794175    1.335515    2.779097 
  16.278075   20.246943    5.741048 
  30.271292   18.909569   21.404826 
  38.588452    8.485657   13.042149 
  49.633002   19.054296    0.073244 
  16.135716   19.318643    1.901488 
  29.079058   18.297934    6.093267 
  12.880064   15.844415   19.924078 
  49.978987   14.041450   10.967549 
  19.065914   18.478128    3.850574 
  55.683051   10.094527   16.412988 
  38.006179    6.836695    3.627783 
  13.563063   15.977465    1.614943 
  41.032184   10.845790   13.552130 
  48.854192    1.780421    5.490690 
  48.991216   10.927080   21.366132 
  36.524317   19.132441   12.273558 
  22.374929   17.526234   17.067841 
  16.172389    0.849998   14.092260 
  15.563277   20.368509    9.027155 
  26.246838   10.253087    6.686199 
  59.935897   10.342463    6.472051 
  35.585624    4.628077    6.879143 
  59.663807   17.068213   15.606126 
  61.969556   19.966995    4.951334 
  27.000712   20.711314   11.989973 
  15.940492    8.642380   21.481678 
  52.449940    2.174796   16.034750 
  34.305675   20.277065   17.473776 
  42.430330    8.991484    5.858210 
  22.324463   17.596857    2.559992 
  55.618056    2.776720   17.671627 
  60.314544   14.423561    9.863924 
  46.125829    0.087856    2.388669 
  55.177103   14.527095    2.443552 
  58.930924    7.029096    5.265554 
  57.876982    0.314357    4.068046 
  52.604019    9.084542    4.168660 
  12.884825   12.906050    2.696402 
  56.324501    3.577571    8.111986 
  27.338851   12.004139    1.292012 
  47.381470   21.616456   16.935560 
  25.363562   12.400878   18.343494 
  40.653225    1.199382   16.542652 
  48.256179   10.730076   17.519732 
  35.485735   17.989412    7.386442 
  16.946818   15.426783    3.205991 
  28.317712   12.579915   13.747148 
  25.165135    6.269705   20.962834 
  24.159774   13.177685   14.525750 
  49.426572    2.817462   16.594006 
  32.915852   12.024400   15.479081 
  40.933343    9.596912   10.078884 
  50.815270    3.801851    3.980799 
  44.353767   21.105556    7.472436 
  58.329344   13.837088    6.617436 
  15.666514   18.073263   11.988342 
  19.542215    6.127180    1.713293 
  52.202186    1.325823    6.287816 
  22.782860    0.220098   17.633447 
  47.316946    2.755241   12.253620 
  27.621313   17.779063   10.346635 
  24.176004   21.341819   10.103272 
  26.857050    7.539366    5.139346 
  33.563619   21.053914   13.250934 
  25.463860   17.449574    5.379823 
  37.299243    9.646129    7.031496 
  29.459776   10.099651    3.399789 
  30.035757   19.177415    2.967952 
  49.887321   10.438925    2.829052 
  37.110585    7.890114    0.013052 
  56.063484    6.707069   19.242866 
  35.918423    1.433394    7.338420 
  38.692578    3.254620   19.196636 
  33.934705   13.316389    3.109097 
  58.538231   11.589195    2.221221 
  37.989638   17.970245   20.082839 
  49.202241    6.788533    2.040128 
  49.569379    4.835870   13.696723 
  27.764932    5.371984   10.536489 
  12.977099   18.642135    3.209687 
  38.517395   12.359792    8.454353 
  50.448690    4.125578    7.460457 
  45.340940    2.020736   20.999483 
  17.403010    3.055420   19.501226 
  31.070330    0.013747    8.819126 
  54.323073   17.200018    0.654552 
  41.590635   14.174382   10.734562 
  43.166684   21.291509   18.151439 
  61.407307    2.646955    6.103810 
  46.967001   12.650409   11.900699 
  20.871425   13.362501    2.037794 
  34.225847   14.028715   12.206950 
  13.504733    6.576842    4.589418 
  15.675192   14.619271   18.421840 
  23.846113   11.447091    1.401289 
  12.769674   15.876493    4.759835 
  29.121320   18.292664   16.103343 
  12.957615   18.625018    6.971404 
  31.997608    2.016660   11.859020 
  29.566004   15.073274   10.854537 
  50.518368   19.334076   11.964390 
  17.196379   12.546625   15.782307 
  28.221829   13.330669    4.398276 
  22.493328   15.789888   21.439819 
  21.981964   14.957536    5.397842 
  41.487313    9.382887    2.358158 
  13.222722   19.146762   14.125413 
  15.681179    6.982375    7.091286 
  55.448007   11.050445    3.677531 
  28.329760    3.674769    5.518984 
  44.348918   11.893656    9.214374 
  18.897628    7.857616    8.489904 
  13.207990   21.637272   19.206187 
  41.717816    4.045371    7.544159 
  36.721441   19.862334    1.444780 
  48.654877    7.857292   16.169406 
  41.145212   19.576367    6.917955 
  37.331978   19.532318    4.804267 
  60.809139   21.476708   20.354802 
  32.582621    1.759519   16.387148 
  48.501217    2.843425    1.726962 
  30.835192   15.680514    0.900433 
  33.812942   17.065426    1.732988 
  51.230986    8.837710   18.414117 
  46.122767   11.954965    1.889019 
  38.956695   16.393370    4.978539 
  12.929139    6.380798   12.497332 
  15.378508    4.995659    1.073996 
  17.316219    4.765275    5.332016 
  36.338482   11.266987   19.491247 
  19.960969   10.524106   10.017721 
  44.832161    1.909661   14.437386 
  28.428766    4.626848   20.647518 
  15.884092   14.737397    8.415253 
  57.564589    6.186234   12.370212 
  34.351631   15.165456   16.183616 
  13.068326    0.437260   12.307569 
  50.831845   17.368042    3.600481 
  33.126368    4.952700   13.739656 
  23.492529    9.963515   16.212022 
  36.254360   12.032681   15.610182 
  52.612579   19.807549   20.192092 
  12.514895    9.296668   16.756939 
  55.807063    6.890643    8.981610 
  23.563834    7.987641   11.710628 
  53.042909   15.090642   16.559351 
  48.706269   11.861298   14.631328 
  37.663153   14.565935   16.956830 
  18.759730   21.580663    3.824647 
  39.978864    5.401564   16.674878 
  41.513774    5.769007    4.735245 
  55.695284   13.136822   14.444971 
  13.245866   12.776603   20.806588 
  12.788334   18.572000   21.422554 
  12.796298    3.423524   14.279006 
  60.674803   10.030077   15.030866 
  53.606943   20.736250   16.813829 
  47.947556   16.614390   14.991316 
  16.183706    7.190354   18.196830 
  22.349802    7.123916   18.683868 
  52.549568   12.373390    4.427581 
  13.537103    9.884390    1.719701 
  26.633305    8.519901    1.696363 
  28.247313    7.310548   13.296821 
  12.907958    0.266154    8.474182 
  65.198606   21.249254   12.339371 
  44.056532    4.823551   20.152478 
  48.442156   16.851093    9.497654 
  32.476272   21.570768    1.407061 
  39.028074    3.731358    0.939881 
  25.696049   19.765784   16.043187 
  25.927366    2.442911    9.712593 
  15.530559    7.384202   10.632133 
  63.468401    6.708838   10.576753 
  60.241251    9.183729   20.203890 
  45.772125   19.253248    5.184651 
  50.219403   10.447352   10.190169 
  43.400390   11.916998    3.717686 
  20.354104   10.794815   13.418852 
  62.484972   11.354160    4.533220 
  45.394431    2.509955   17.645661 
  39.187723   21.513125   12.056428 
  51.150649    5.560662   17.854378 
  27.553065   16.168809   13.612477 
  31.732354   12.346830   21.628854 
  18.537484   18.528601    9.773999 
  35.204561    3.992082   10.465924 
  53.461519    5.558760    3.027866 
  38.382581    6.584452    7.136270 
  18.691175   12.606848    4.382905 
  22.262413   14.262446   18.170718 
  12.797699   13.274900    6.792551 
  28.339863   12.235786    8.969958 
  60.576599   20.548841   16.496212 
  32.635558   15.988236    7.486009 
  45.519165    8.523147    4.240100 
  53.988887    5.754277   16.198036 
  60.196784   14.162453    4.102293 
  12.837945    5.748702   16.606786 
  13.335994    6.069839   19.982782 
  40.520765   13.132977   19.331859 
  57.671732   11.772370   19.604609 
  13.198170   12.919966   10.582619 
  24.492768   12.344162    4.791646 
  24.866793    3.853079   17.772632 
  45.823047    5.004531    1.301010 
  47.248353   13.784098    8.211787 
  35.109798   11.287109    1.051295 
  46.609742   18.424432    1.668367 
  54.898474   17.264064   18.750781 
  24.888791    5.134637   13.400239 
  34.635161   20.392229    9.427769 
  16.137313   12.384402    0.907173 
  22.088562    4.611994   16.104880 
  12.836465    3.234614   10.596910 
  26.020760    9.913233   13.577801 
  40.572168   14.177590    2.092227 
  30.446607   10.996863   11.450343 
  69.255179    0.703826   16.982395 
  28.841639   15.307171    6.935605 
  24.929922   14.777118    2.421729 
  54.554771    5.671395    6.111733 
  51.382427    1.904326    0.598216 
  12.948123   12.778876   13.760170 
  36.690465    1.879614   16.438919 
  39.039195   17.881473   10.461376 
  23.480792   11.167029   11.867755 
  49.576401    0.342103   13.231618 
  44.041868    8.634217   11.199014 
  37.117412   14.095810   21.366255 
  12.735461   19.038287   10.799084 
  23.740683   18.367053   11.462955 
  34.548851    8.710304   17.414444 
  59.032439   21.187846   12.123178 
  38.306421    4.398200   12.947165 
  45.308963    8.344305   16.755474 
  60.969971   12.369749   17.963728 
  49.309992    0.258463   20.127924 
  22.024082   20.598613   13.810171 
  50.908436   20.299321    7.754559 
  28.940442   11.805129   19.942116 
  52.612538    8.010355    8.777981 
  24.427498    9.107210    4.146908 
  12.841211    6.791576    1.590836 
  18.274545    0.354695   10.758856 
  28.974780    2.350936   10.815309 
  15.962078    9.578811   15.396284 
  35.483328    2.116462   13.444962 
  45.822365   15.619145    3.725966 
  52.199969   12.025056   13.335816 
  63.031926    1.712038   17.997156 
  66.371161   18.157427   18.651036 
  32.191688    4.291491    6.296142 
  22.137836   21.097355    4.991638 
  43.410713   12.682644   21.636047 
  45.829839   18.890833   12.204003 
  29.505896   10.404101    6.589025 
  23.113712    0.029585    0.107174 
  57.071003    6.573999   15.693282 
  55.792256   16.353122   14.397533 
  20.017769   10.801452   17.740250 
  16.087243    2.129007    8.920719 
  45.677342   10.161944   20.360384 
  26.129350   19.733606    2.066973 
  50.385307   13.175444   19.608074 
  42.958137    1.068915    4.866028 
  51.041563    6.233906   21.064498 
  15.909920   10.769143   12.080051 
  21.182530   10.901237    6.045403 
  21.120741   20.412134    8.946178 
  30.136631    9.350426   14.563548 
  44.870720   15.400363   13.355674 
  33.483153    0.855811    4.398467 
  44.508668   11.270447   13.836253 
  19.048151    6.072821   20.166544 
  26.703237    8.778535    9.894842 
  25.782273   14.052779    7.254865 
  34.737247   17.236189   19.638719 
  25.219337   17.143507   21.329306 
  53.496982   10.526767    7.381730 
  13.030551    0.085767    4.800294 
  53.826978    4.203116   21.004120 
  47.948469    8.554934   12.688545 
  53.979550   13.677694   20.058640 
  64.222513   11.925181   15.829355 
  56.803681    1.038888   10.425293 
  42.259762    1.190882    9.469703 
  58.766597   12.485234   12.758536 
  57.319320   19.783011    1.532291 
  22.045800   16.079340   14.184095 
  43.762428    7.663904    0.570756 
  15.880877   19.064206   19.297896 
  27.368324   20.681989    8.094082 
  12.981649    9.874594    5.830235 
  29.330370    8.140038   21.219513 
  16.332264   11.797819   19.266296 
  27.157800    5.423881    1.877247 
  53.078579    2.479235   15.176930 
  42.448458   21.494508   13.179684 
  35.111823   12.375969    6.649732 
  27.851123    1.035198    2.931482 
  57.995169   18.639039   19.999842 
  31.605700   10.292436   17.988624 
  33.092576    7.628152   20.188089 
  54.965997    0.432343   20.781235 
  42.595776   19.327135   10.304023 
  39.615697    7.035182   19.809992 
  27.974677   16.635259    2.977891 
  60.453645    6.942657   14.056867 
  31.164206   16.039813   17.983879 
  24.642796   14.943813   11.573475 
  57.637581   11.120602    9.033667 
  13.208293    0.206022    0.999589 
  59.132132    5.887852    8.333204 
  18.753379    2.951346    0.804549 
  27.111265    5.475912   16.209227 
  32.267576    5.762584    9.691576 
  55.589780    0.668146    7.089323 
  52.048987   16.517966    9.423188 
  54.721457   13.741988    7.462889 
  19.642035   20.247773   16.728911 
  41.291477   16.117624    7.954409 
  37.257912   17.867517   16.629472 
  27.671445   14.705682   21.435893 
  19.019794    0.234611   20.569516 
  37.862702   10.366524    3.400256 
  12.800420    3.212760    0.169649 
  48.720233   15.934855    5.876551 
  54.032903    5.484799   12.511423 
  12.890545    6.471044    8.839648 
  36.601544   14.570755    9.852875 
  37.674789   16.096886   13.523899 
  47.006616    8.883682    8.188273 