Cu  C 
 1.0000000000000000
   160.8448789999999917    0.0000000000000000    0.0000000000000000
     0.0000000000000000   21.6897599999999997    0.0000000000000000
     0.0000000000000000    0.0000000000000000   21.6897599999999997
 Cu  C  
 432 521
Cartesian
  0.0000000000000000  0.0000000000000000  0.0000000000000000
  0.0000000000000000  1.8074730000000001  1.8074730000000001
  1.8544090000000000  0.0036070000000000  1.7654700000000001
  1.9456059999999999  1.7046239999999999 21.5924019999999999
  0.0000000000000000  0.0000000000000000  3.6149670000000000
  0.0000000000000000  1.8074730000000001  5.4224399999999999
  2.0241069999999999 21.6687839999999987  5.4286960000000004
  1.9338100000000000  1.7826270000000000  3.6403629999999998
  0.0000000000000000  0.0000000000000000  7.2299129999999998
  0.0000000000000000  1.8074730000000001  9.0374070000000000
  2.0431170000000001  0.0784930000000000  8.9648020000000006
  2.0224790000000001  1.9703260000000000  7.1788410000000002
  0.0000000000000000  0.0000000000000000 10.8448799999999999
  0.0000000000000000  1.8074730000000001 12.6523529999999997
  1.9709200000000000  0.0271270000000000 12.5925650000000005
  1.9413860000000001  1.8200900000000000 10.8439569999999996
  0.0000000000000000  0.0000000000000000 14.4598469999999999
  0.0000000000000000  1.8074730000000001 16.2673200000000016
  1.9945240000000000 21.5764689999999995 16.2870540000000013
  2.0071469999999998  1.8810650000000000 14.5281129999999994
  0.0000000000000000  0.0000000000000000 18.0747929999999997
  0.0000000000000000  1.8074730000000001 19.8822870000000016
  2.0033550000000000 21.5896509999999999 19.8835340000000009
  1.9499390000000001  1.6424730000000001 17.9704319999999989
  0.0000000000000000  3.6149670000000000  0.0000000000000000
  0.0000000000000000  5.4224399999999999  1.8074730000000001
  1.9209879999999999  3.6213639999999998  1.7933800000000000
  1.9582550000000001  5.4434649999999998  0.0530670000000000
  0.0000000000000000  3.6149670000000000  3.6149670000000000
  0.0000000000000000  5.4224399999999999  5.4224399999999999
  1.9658880000000001  3.6675890000000000  5.4120090000000003
  2.0028769999999998  5.4100529999999996  3.6309629999999999
  0.0000000000000000  3.6149670000000000  7.2299129999999998
  0.0000000000000000  5.4224399999999999  9.0374070000000000
  1.9894760000000000  3.6071170000000001  9.0266999999999999
  1.9516309999999999  5.4558479999999996  7.2768740000000003
  0.0000000000000000  3.6149670000000000 10.8448799999999999
  0.0000000000000000  5.4224399999999999 12.6523529999999997
  2.0916800000000002  3.5604390000000001 12.7634919999999994
  2.0483929999999999  5.3057689999999997 10.9159109999999995
  0.0000000000000000  3.6149670000000000 14.4598469999999999
  0.0000000000000000  5.4224399999999999 16.2673200000000016
  2.0751330000000001  3.5865119999999999 16.3460840000000012
  2.0398130000000001  5.3761710000000003 14.5544980000000006
  0.0000000000000000  3.6149670000000000 18.0747929999999997
  0.0000000000000000  5.4224399999999999 19.8822870000000016
  2.0478060000000000  3.5791240000000002 19.8594490000000015
  2.0288089999999999  5.4298989999999998 18.0419960000000010
  0.0000000000000000  7.2299129999999998  0.0000000000000000
  0.0000000000000000  9.0374070000000000  1.8074730000000001
  1.9032519999999999  7.1926420000000002  1.8211409999999999
  2.0286270000000002  8.9966840000000001  0.0195390000000000
  0.0000000000000000  7.2299129999999998  3.6149670000000000
  0.0000000000000000  9.0374070000000000  5.4224399999999999
  2.0204230000000001  7.2208180000000004  5.4607799999999997
  1.9387870000000000  9.0178949999999993  3.5520320000000001
  0.0000000000000000  7.2299129999999998  7.2299129999999998
  0.0000000000000000  9.0374070000000000  9.0374070000000000
  2.0789420000000001  7.1067879999999999  9.1881020000000007
  1.9300610000000000  9.0501909999999999  7.3834559999999998
  0.0000000000000000  7.2299129999999998 10.8448799999999999
  0.0000000000000000  9.0374070000000000 12.6523529999999997
  2.1444070000000002  7.0862280000000002 12.6537530000000000
  1.9996370000000001  8.9413579999999993 10.9311840000000000
  0.0000000000000000  7.2299129999999998 14.4598469999999999
  0.0000000000000000  9.0374070000000000 16.2673200000000016
  1.9780670000000000  7.2465489999999999 16.3058119999999995
  2.0527229999999999  9.0342979999999997 14.4393870000000000
  0.0000000000000000  7.2299129999999998 18.0747929999999997
  0.0000000000000000  9.0374070000000000 19.8822870000000016
  2.0510109999999999  7.2046270000000003 19.8500970000000017
  1.9901470000000001  9.0951789999999999 17.9947090000000003
  0.0000000000000000 10.8448799999999999  0.0000000000000000
  0.0000000000000000 12.6523529999999997  1.8074730000000001
  1.9428470000000000 10.8632679999999997  1.7037270000000000
  1.9328950000000000 12.6988199999999996 21.6508929999999999
  0.0000000000000000 10.8448799999999999  3.6149670000000000
  0.0000000000000000 12.6523529999999997  5.4224399999999999
  1.9272879999999999 10.8433519999999994  5.4034060000000004
  2.0381100000000001 12.6796840000000000  3.7403970000000002
  0.0000000000000000 10.8448799999999999  7.2299129999999998
  0.0000000000000000 12.6523529999999997  9.0374070000000000
  1.9800570000000000 10.7965590000000002  9.1342710000000000
  2.0592350000000001 12.6266649999999991  7.2526060000000001
  0.0000000000000000 10.8448799999999999 10.8448799999999999
  0.0000000000000000 12.6523529999999997 12.6523529999999997
  2.0552440000000001 10.7569859999999995 12.6065609999999992
  2.0224980000000001 12.6559399999999993 10.8188669999999991
  0.0000000000000000 10.8448799999999999 14.4598469999999999
  0.0000000000000000 12.6523529999999997 16.2673200000000016
  1.9797460000000000 10.8127080000000007 16.2055539999999993
  2.0700669999999999 12.5363209999999992 14.4504900000000003
  0.0000000000000000 10.8448799999999999 18.0747929999999997
  0.0000000000000000 12.6523529999999997 19.8822870000000016
  1.9289930000000000 10.8445570000000000 19.9319440000000014
  2.1194320000000002 12.6126819999999995 18.0375210000000017
  0.0000000000000000 14.4598469999999999  0.0000000000000000
  0.0000000000000000 16.2673200000000016  1.8074730000000001
  2.0178199999999999 14.3471460000000004  1.9060170000000001
  2.0402480000000001 16.1859040000000007  0.1828500000000000
  0.0000000000000000 14.4598469999999999  3.6149670000000000
  0.0000000000000000 16.2673200000000016  5.4224399999999999
  1.8774940000000000 14.5440120000000004  5.4303480000000004
  2.0849549999999999 16.1517769999999992  3.6577329999999999
  0.0000000000000000 14.4598469999999999  7.2299129999999998
  0.0000000000000000 16.2673200000000016  9.0374070000000000
  2.0359810000000000 14.5222809999999996  8.9265249999999998
  1.9083610000000000 16.4057609999999983  7.2802280000000001
  0.0000000000000000 14.4598469999999999 10.8448799999999999
  0.0000000000000000 16.2673200000000016 12.6523529999999997
  1.9774149999999999 14.4081320000000002 12.7055080000000000
  2.0059619999999998 16.2314660000000011 10.8656360000000003
  0.0000000000000000 14.4598469999999999 14.4598469999999999
  0.0000000000000000 16.2673200000000016 16.2673200000000016
  1.9690310000000000 14.5040460000000007 16.1583089999999991
  1.9579190000000000 16.3850930000000012 14.3671520000000008
  0.0000000000000000 14.4598469999999999 18.0747929999999997
  0.0000000000000000 16.2673200000000016 19.8822870000000016
  1.9817560000000001 14.5293860000000006 19.8897100000000009
  2.1143070000000002 16.3319420000000015 18.0081290000000003
  0.0000000000000000 18.0747929999999997  0.0000000000000000
  0.0000000000000000 19.8822870000000016  1.8074730000000001
  2.0040719999999999 18.0808099999999996  1.9033450000000001
  1.9238980000000001 19.9021720000000002  0.0348570000000000
  0.0000000000000000 18.0747929999999997  3.6149670000000000
  0.0000000000000000 19.8822870000000016  5.4224399999999999
  1.9848319999999999 18.0741359999999993  5.3138800000000002
  2.0199840000000000 19.9868530000000000  3.5491619999999999
  0.0000000000000000 18.0747929999999997  7.2299129999999998
  0.0000000000000000 19.8822870000000016  9.0374070000000000
  1.9798720000000001 18.0929310000000001  9.0436040000000002
  1.9997940000000001 19.8112309999999994  7.1430030000000002
  0.0000000000000000 18.0747929999999997 10.8448799999999999
  0.0000000000000000 19.8822870000000016 12.6523529999999997
  1.9429099999999999 18.0952170000000017 12.6735609999999994
  1.9484699999999999 19.9182619999999986 10.8612079999999995
  0.0000000000000000 18.0747929999999997 14.4598469999999999
  0.0000000000000000 19.8822870000000016 16.2673200000000016
  2.0086729999999999 18.1466719999999988 16.1467869999999998
  2.0571869999999999 19.8959560000000018 14.3397299999999994
  0.0000000000000000 18.0747929999999997 18.0747929999999997
  0.0000000000000000 19.8822870000000016 19.8822870000000016
  1.9580310000000001 18.0035640000000008 19.9616949999999989
  1.9997940000000001 19.8690159999999985 18.0658530000000006
  3.9084420000000000 21.6505159999999997  0.0097740000000000
  3.7930560000000000  1.7662920000000000  1.6725429999999999
  5.7941609999999999  0.0344100000000000  1.6965129999999999
  5.7289859999999999  1.8710110000000000 21.6636789999999984
  3.8629470000000001  0.0416290000000000  3.5866769999999999
  3.8056950000000001  1.8544909999999999  5.4561570000000001
  5.7854429999999999 21.6813110000000009  5.2581650000000000
  5.6826189999999999  1.8286169999999999  3.4910960000000002
  3.9687579999999998  0.0130100000000000  7.1264960000000004
  3.9287160000000001  1.7977440000000000  8.9992540000000005
  5.7309700000000001 21.6088629999999995  8.9769310000000004
  5.7607540000000004  1.7745599999999999  7.1470859999999998
  3.8593090000000001 21.6711160000000014 10.7895789999999998
  3.7968850000000001  1.7927780000000000 12.6678700000000006
  5.7256799999999997 21.6202229999999993 12.6257870000000008
  5.7707550000000003  1.7240359999999999 10.9468680000000003
  3.8756580000000000 21.6297159999999984 14.3117839999999994
  3.8564889999999998  1.6989209999999999 16.2368139999999990
  5.8329779999999998 21.6795769999999983 16.2662389999999988
  5.7144649999999997  1.7914520000000000 14.3285070000000001
  3.9093800000000001 21.6793489999999984 18.1535669999999989
  3.8977140000000001  1.7244269999999999 19.8471900000000012
  5.9070679999999998 21.5440399999999990 19.8634540000000008
  5.8881959999999998  1.5454270000000001 18.0218510000000016
  3.8239190000000001  3.6877700000000000 21.6705199999999998
  3.8006060000000002  5.4085660000000004  1.7816250000000000
  5.7010449999999997  3.6761750000000002  1.6864250000000001
  5.8013360000000000  5.3263629999999997 21.4863040000000005
  3.8091260000000000  3.5832480000000002  3.5449720000000000
  3.8706420000000001  5.3087679999999997  5.3467729999999998
  5.7920910000000001  3.6346919999999998  5.4311970000000001
  5.7491890000000003  5.2974959999999998  3.4463960000000000
  3.9040430000000002  3.6601010000000000  7.1977840000000004
  3.9843410000000001  5.2437740000000002  9.0372649999999997
  5.7221810000000000  3.5025119999999998  8.9907789999999999
  5.8661690000000002  5.3323380000000000  7.1969120000000002
  3.9695420000000001  3.5143810000000002 10.9268099999999997
  3.9544199999999998  5.4474070000000001 12.6835620000000002
  5.8200300000000000  3.5937700000000001 12.6149489999999993
  5.8207089999999999  5.4474790000000004 10.8454619999999995
  3.9440930000000001  3.5999880000000002 14.4889969999999995
  3.9951690000000002  5.3767969999999998 16.4070229999999988
  5.6909619999999999  3.4932629999999998 16.3905269999999987
  5.7670560000000002  5.3779719999999998 14.5332819999999998
  3.8691469999999999  3.4937610000000001 18.0906330000000004
  3.8388130000000000  5.3702740000000002 19.8501230000000000
  5.7960830000000003  3.3429329999999999 19.7784450000000014
  5.7173749999999997  5.3126410000000002 18.1574150000000003
  3.8654690000000000  7.0968669999999996  0.0254290000000000
  4.0022900000000003  8.9627569999999999  1.7396290000000001
  5.8257589999999997  7.1276849999999996  1.6707150000000000
  5.7298349999999996  9.1000300000000003 21.5902899999999995
  3.8081900000000002  7.2131010000000000  3.5323000000000002
  3.7810180000000000  9.0243380000000002  5.4111190000000002
  5.8647109999999998  7.2468260000000004  5.3736949999999997
  5.7391120000000004  9.0627859999999991  3.7015080000000000
  3.8982730000000001  7.1906770000000000  7.3065049999999996
  3.8679020000000000  8.8736859999999993  9.1667249999999996
  5.7452519999999998  7.1407350000000003  8.9865999999999993
  5.7526580000000003  9.0742300000000000  7.2487880000000002
  4.0134340000000002  7.1641360000000001 10.8617050000000006
  4.0577740000000002  8.9468840000000007 12.6774889999999996
  5.8928849999999997  7.2460339999999999 12.5295120000000004
  5.7909709999999999  9.0532710000000005 10.8320810000000005
  3.8672309999999999  7.2097129999999998 14.4875349999999994
  3.8438669999999999  9.0395869999999992 16.2537480000000016
  5.7289560000000002  7.1988240000000001 16.3310600000000008
  5.7657569999999998  9.0874369999999995 14.5877920000000003
  3.8452169999999999  7.2305640000000002 18.0223550000000010
  3.8787810000000000  9.0831750000000007 19.9886060000000008
  5.6960059999999997  7.2486810000000004 19.8838509999999999
  5.7217019999999996  9.0711580000000005 18.0117709999999995
  3.8097010000000000 10.9071280000000002  0.0227570000000000
  3.9599009999999999 12.7240380000000002  1.7578900000000000
  5.6778940000000002 10.9472199999999997  1.7725359999999999
  5.7170480000000001 12.6558159999999997 21.5503840000000011
  3.8371249999999999 10.8646189999999994  3.5353930000000000
  3.8479230000000002 12.7047159999999995  5.5396700000000001
  5.6597390000000001 10.8540060000000000  5.4820240000000000
  5.8330500000000001 12.5715540000000008  3.7285200000000001
  3.7490280000000000 10.7379809999999996  7.2772569999999996
  3.8426100000000001 12.6159700000000008  9.0960800000000006
  5.6672479999999998 10.8133070000000000  9.0130909999999993
  5.7752990000000004 12.5629460000000002  7.3121460000000003
  3.9134739999999999 10.7507830000000002 10.8606730000000002
  3.9050940000000001 12.5742360000000009 12.6295599999999997
  5.8516959999999996 10.8403630000000000 12.6038949999999996
  5.7954710000000000 12.5910170000000008 10.8609349999999996
  3.9871850000000002 10.8459459999999996 14.4957580000000004
  3.8266760000000000 12.6924279999999996 16.2710410000000003
  5.7100289999999996 10.8968690000000006 16.3514659999999985
  5.7624639999999996 12.5920670000000001 14.4813580000000002
  3.8656109999999999 10.8675259999999998 18.0855400000000017
  3.8050139999999999 12.7018620000000002 19.9228069999999988
  5.8398450000000004 10.9046489999999991 19.7898299999999985
  5.6791570000000000 12.6784520000000001 18.0342799999999990
  3.9627129999999999 14.4868620000000004  0.0147500000000000
  3.9338229999999998 16.1775759999999984  1.9257180000000000
  5.8340040000000002 14.5239390000000004  1.8735120000000001
  5.8254020000000004 16.2345830000000007  0.1489980000000000
  4.0245280000000001 14.4067279999999993  3.6679260000000000
  3.8511720000000000 16.3162990000000008  5.4691510000000001
  5.7871119999999996 14.4790200000000002  5.4931970000000003
  5.8044500000000001 16.2871899999999989  3.7729990000000000
  3.9827560000000002 14.4907599999999999  7.2540069999999996
  3.9352360000000002 16.2663480000000007  8.9495979999999999
  5.8086719999999996 14.3623399999999997  8.9730209999999992
  5.9629399999999997 16.4129399999999990  7.2450400000000004
  3.8942160000000001 14.4269309999999997 10.8134460000000008
  3.8191020000000000 16.3462069999999997 12.6583009999999998
  5.7988730000000004 14.4500519999999995 12.6493680000000008
  5.8024880000000003 16.2675240000000016 10.7426490000000001
  3.8555940000000000 14.4936260000000008 14.5307220000000008
  3.8264600000000000 16.3600290000000008 16.2012150000000013
  5.7506469999999998 14.6462299999999992 16.0964589999999994
  5.8080010000000000 16.3428019999999989 14.3493370000000002
  3.8440219999999998 14.5289009999999994 17.8771379999999986
  3.8961850000000000 16.3920800000000000 20.0280650000000016
  5.7189110000000003 14.5353469999999998 19.8850969999999982
  5.7503149999999996 16.2470730000000003 17.8788190000000000
  3.8577360000000001 18.1396130000000007  0.1005080000000000
  3.8573580000000001 19.9420259999999985  1.8192580000000000
  5.8572889999999997 18.0051220000000001  1.8189979999999999
  5.8221189999999998 19.8639030000000005  0.0966770000000000
  3.9531000000000001 18.0912720000000000  3.6177380000000001
  3.9566450000000000 19.8988300000000002  5.3492559999999996
  5.7899580000000004 18.1287769999999995  5.3325570000000004
  5.8135000000000003 19.8776380000000010  3.4847619999999999
  3.9432680000000002 18.1732610000000001  7.1818540000000004
  3.8193109999999999 19.8439310000000013  9.0302050000000005
  5.7496650000000002 18.1540320000000008  9.0124999999999993
  5.7844410000000002 19.9195850000000014  7.0901370000000004
  3.9205890000000001 17.9897659999999995 10.7915290000000006
  3.9553500000000001 19.8902250000000009 12.6241090000000007
  5.8580800000000002 18.1283910000000006 12.4781350000000000
  5.8247600000000004 19.9996480000000005 10.8676670000000009
  4.0312789999999996 18.1594109999999986 14.3455610000000000
  3.9396480000000000 19.8152019999999993 16.2103509999999993
  5.7354589999999996 18.2128160000000001 16.0622989999999994
  5.8225629999999997 19.9213689999999986 14.3653189999999995
  3.9832310000000000 18.1614749999999994 18.0278290000000005
  3.9512630000000000 19.8872140000000002 19.9861250000000013
  5.8427160000000002 18.1526229999999984 19.8415140000000001
  5.8543799999999999 19.9522329999999997 18.0159769999999995
  7.8180509999999996 21.6565450000000013  0.1188760000000000
  7.5577860000000001  1.8589910000000001  1.7102240000000000
  9.7478499999999997  0.1368680000000000  1.7449159999999999
  9.5078189999999996  1.7720240000000000 21.5184010000000008
  7.7334639999999997 21.6713850000000008  3.4256820000000001
  7.6391720000000003  1.6925880000000000  5.2673040000000002
  9.9487129999999997 21.4775109999999998  5.1633540000000000
  9.6542329999999996  1.9033080000000000  3.7773319999999999
  7.8072889999999999 21.6462040000000009  7.1595000000000004
  7.6647619999999996  1.7236910000000001  8.9808950000000003
  9.8382699999999996  0.3602330000000000  8.8162810000000000
  9.7879570000000005  1.8278520000000000  6.7161059999999999
  7.7580999999999998  0.0773160000000000 10.7802939999999996
  7.6819829999999998  1.7691850000000000 12.6910690000000006
  9.7429109999999994 21.5480279999999986 12.5894990000000000
  9.8414029999999997  1.7845500000000001 10.9755669999999999
  7.7424890000000000 21.6272559999999991 14.2936119999999995
  7.6929489999999996  1.7563460000000000 16.2682299999999991
  9.7428279999999994 21.6431579999999997 16.1308399999999992
  9.6611320000000003  1.8756459999999999 14.3024520000000006
  7.8202290000000003 21.4349990000000012 18.0138609999999986
  7.6889589999999997  1.6291920000000000 19.7494419999999984
  9.6154829999999993 21.4521540000000002 19.9332689999999992
  9.9533710000000006  1.6319939999999999 18.1143830000000001
  7.6322279999999996  3.5468970000000000 21.4962799999999987
  7.7873630000000000  5.3878690000000002  1.6056930000000000
  9.5978860000000008  3.4316430000000002  1.7825830000000000
  9.7621459999999995  5.3082469999999997 21.6149999999999984
  7.7058270000000002  3.6443360000000000  3.7000210000000000
  7.7190810000000001  5.4321830000000002  5.3896030000000001
  9.9358880000000003  4.0547019999999998  5.3356310000000002
  9.7784200000000006  5.5462749999999996  3.3684870000000000
  7.8428589999999998  3.5312060000000001  7.0826859999999998
  7.6520310000000000  5.3480449999999999  8.9846079999999997
  9.7321089999999995  3.3343600000000002  8.9893839999999994
  9.7099510000000002  5.4302020000000004  7.5741300000000003
  7.6230599999999997  3.4920789999999999 10.8143589999999996
  7.6423030000000001  5.3808239999999996 12.6084499999999995
  9.6096990000000009  3.7571930000000000 12.5923660000000002
  9.6137739999999994  5.2327979999999998 10.6053909999999991
  7.7433249999999996  3.6375329999999999 14.5681370000000001
  7.6161799999999999  5.5184639999999998 16.2588270000000001
  9.7150660000000002  3.6320340000000000 16.4131269999999994
  9.6750570000000007  5.4026940000000003 14.4756020000000003
  7.6948309999999998  3.5914630000000001 18.0364059999999995
  7.6937340000000001  5.3483010000000002 19.8327719999999985
  9.7202330000000003  3.6180249999999998 19.7788670000000018
  9.6562409999999996  5.5336480000000003 17.9520049999999998
  7.5109899999999996  7.3466170000000002 21.5674260000000011
  7.4511690000000002  9.0731920000000006  1.8047890000000000
  9.6620380000000008  7.5590510000000002  1.4021809999999999
  9.4781990000000000  9.3430129999999991 21.4746079999999999
  7.6650039999999997  7.2373230000000000  3.4661580000000001
  7.6185080000000003  9.0545779999999993  5.4318309999999999
  9.7119219999999995  7.0094500000000002  5.4709060000000003
  9.6394110000000008  8.8702590000000008  3.7507969999999999
  7.6710330000000004  7.2166980000000001  7.2648310000000000
  7.6127370000000001  9.0079399999999996  8.9782100000000007
  9.7218870000000006  7.4455000000000000  9.0492969999999993
  9.6212210000000002  9.0032409999999992  7.0247820000000001
  7.7044059999999996  7.2592720000000002 10.7460880000000003
  7.6845290000000004  9.0890909999999998 12.6574069999999992
  9.5767799999999994  7.0912639999999998 12.5892090000000003
  9.6163360000000004  9.1392690000000005 10.9050309999999993
  7.5815260000000002  7.3051810000000001 14.3856330000000003
  7.5743739999999997  9.0632199999999994 16.3286750000000005
  9.4636479999999992  7.4432609999999997 16.1212899999999983
  9.6663759999999996  9.0505910000000007 14.2444880000000005
  7.6119170000000000  7.3139440000000002 18.0782699999999998
  7.6064990000000003  9.1195900000000005 19.7456169999999993
  9.4859220000000004  7.2236710000000004 19.9978809999999996
  9.7832089999999994  8.9012930000000008 18.3029760000000010
  7.5407729999999997 10.9475090000000002 21.6285610000000013
  7.6284489999999998 12.6325990000000008  1.8317870000000001
  9.5497829999999997 10.6375050000000009  2.0816330000000001
  9.6958749999999991 12.4866159999999997  0.1103170000000000
  7.5710920000000002 10.8900330000000007  3.6395019999999998
  7.7118570000000002 12.7004380000000001  5.5489509999999997
  9.5250889999999995 10.8790160000000000  5.3506220000000004
  9.6129449999999999 12.8526720000000001  3.5885829999999999
  7.6269760000000000 10.8264259999999997  7.2501300000000004
  7.7214710000000002 12.6526479999999992  8.9726710000000001
  9.6650969999999994 10.6788319999999999  9.0036959999999997
  9.8426740000000006 12.3836139999999997  7.3018660000000004
  7.6894539999999996 10.7811839999999997 10.8096829999999997
  7.6302680000000001 12.6418649999999992 12.7310230000000004
  9.5598010000000002 11.0672850000000000 12.8211990000000000
  9.7040989999999994 12.6123989999999999 10.8147210000000005
  7.7331599999999998 10.8056719999999995 14.4902970000000000
  7.5516810000000003 12.6547719999999995 16.2032300000000014
  9.7165450000000000 10.6013099999999998 16.2277079999999998
  9.5621659999999995 12.7601540000000000 14.6559430000000006
  7.7822579999999997 10.9369709999999998 17.9777440000000013
  7.7445019999999998 12.6679589999999997 19.8494579999999985
  9.7285920000000008 11.0521270000000005 19.6183960000000006
  9.8029069999999994 12.7965909999999994 17.8074739999999991
  7.5786519999999999 14.4475560000000005 21.6156219999999983
  7.6071900000000001 16.1321620000000010  1.9395830000000001
  9.5760640000000006 14.5988150000000001  1.7221610000000001
  9.6511650000000007 16.2170029999999983 21.5565609999999985
  7.6717519999999997 14.4428970000000003  3.7878039999999999
  7.7605639999999996 16.3560079999999992  5.4699220000000004
  9.7025290000000002 14.4605999999999995  5.7039530000000003
  9.7599330000000002 16.2716829999999995  3.8785820000000002
  7.6225969999999998 14.3905569999999994  7.2080089999999997
  7.6159850000000002 16.3131519999999988  9.0761120000000002
  9.6357250000000008 14.5379980000000000  8.9170960000000008
  9.4996329999999993 16.4511740000000017  7.2357040000000001
  7.5910330000000004 14.3850719999999992 10.8310320000000004
  7.6843320000000004 16.3745839999999987 12.5328499999999998
  9.5649210000000000 14.4385089999999998 12.5313289999999995
  9.7981850000000001 16.2673950000000005 10.7878679999999996
  7.7423989999999998 14.6414580000000001 14.4368099999999995
  7.5666050000000000 16.3800150000000002 16.2791029999999992
  9.5156840000000003 14.8497389999999996 16.2222800000000014
  9.8195200000000007 16.3359699999999997 14.1204520000000002
  7.6162760000000000 14.4462430000000008 18.0377009999999984
  7.6939560000000000 16.3205190000000009 19.8900760000000005
  9.6839709999999997 14.2448669999999993 19.9503599999999999
  9.7171970000000005 16.2033969999999989 18.2981359999999995
  7.6530050000000003 18.0092980000000011  0.0089830000000000
  7.6729700000000003 19.8592949999999995  1.8286279999999999
  9.5766349999999996 17.7672130000000017  1.8819410000000001
  9.7458130000000001 19.7025410000000001  0.2929070000000000
  7.7032689999999997 18.0504539999999984  3.6070300000000000
  7.7027950000000001 19.9976850000000006  5.2046500000000000
  9.6461690000000004 18.3114570000000008  5.4315509999999998
  9.7184329999999992 19.8360139999999987  3.3836860000000000
  7.7033630000000004 18.2210929999999998  7.2181610000000003
  7.7225400000000004 19.9539769999999983  9.0468039999999998
  9.6398510000000002 18.0141209999999994  9.0104190000000006
  9.8484770000000008 20.0345499999999994  7.2762330000000004
  7.7070639999999999 18.1708539999999985 10.7930620000000008
  7.7836699999999999 19.9456029999999984 12.5219170000000002
  9.7065509999999993 18.3022360000000006 12.4069660000000006
  9.7008810000000008 19.9638780000000011 10.5992440000000006
  7.6946880000000002 18.1547669999999997 14.3388100000000005
  7.7279119999999999 19.7645449999999983 16.1457629999999988
  9.7061810000000008 17.7351519999999994 16.2386109999999988
  9.7620410000000000 19.6335780000000000 14.6344230000000000
  7.6747820000000004 18.0961900000000000 18.1399520000000010
  7.7949809999999999 19.7942320000000009 20.1149069999999988
  9.6526280000000000 18.1253320000000002 19.9053719999999998
  9.7710319999999999 19.7211069999999999 17.9288640000000008
 19.4661650000000002  1.5360020000000001 20.0442450000000001
 48.3595339999999965  0.1091120000000000  0.5079820000000000
 26.2928539999999984  8.2752219999999994  8.6018310000000007
 12.8877140000000008  7.0363319999999998  2.4043060000000001
 19.3865879999999997  9.1957599999999999 11.6590039999999995
 51.3713570000000033  6.2554010000000000  9.9937679999999993
 52.1424579999999978 10.7486689999999996 15.2260380000000008
 40.2410059999999987 17.6491159999999994  0.6735600000000000
 30.1058790000000016  1.3207460000000000  6.1264060000000002
 18.0632260000000002  6.5095619999999998 13.0877850000000002
 48.8433380000000028 16.9785280000000007  2.0321560000000001
 21.3988979999999991 11.2586239999999993 13.7957370000000008
 50.1392280000000028 18.6495010000000008 20.2621210000000005
 28.2075910000000007  8.3207000000000004 12.2619880000000006
 23.7531239999999997  3.7565979999999999  3.8342030000000000
 38.3180910000000026  6.9038810000000002  6.8636590000000002
 21.2118949999999984 15.9429289999999995  3.0806089999999999
 12.8267769999999999  7.2080099999999998 12.2304150000000007
 38.4363749999999982  6.3607909999999999  0.5302280000000000
 31.4254549999999995  8.2738379999999996 20.5425339999999998
 30.6682069999999989  5.3645769999999997 18.4169839999999994
 29.5965500000000006 11.4224449999999997  1.0041140000000000
 18.8239039999999989 16.8192790000000016 10.9815489999999993
 31.4041430000000013 18.7040460000000017  0.3126830000000000
 27.0564409999999995 21.4602800000000009 18.3855119999999985
 44.4102129999999988  5.8159489999999998  7.5886250000000004
 24.2226379999999999  7.4086480000000003  5.4824669999999998
 50.7305029999999988  5.9804560000000002 19.0725489999999986
 37.8711819999999975 13.6815979999999993 13.2459869999999995
 16.0489600000000010  3.2926730000000002 13.9225700000000003
 157.7454459999999870 21.6353340000000003  7.3811609999999996
 41.0756510000000006  4.7386910000000002 12.5801759999999998
 36.4327290000000019  8.7305849999999996  2.0561449999999999
 49.1425899999999984 12.5276409999999991  1.4604400000000000
 16.1506380000000007 15.2383520000000008 17.2154379999999989
 32.4541990000000027  5.2912509999999999 11.4450819999999993
 33.2788469999999990 19.9810400000000001 16.8113169999999990
 21.5910760000000010  7.8770530000000001 14.9733640000000001
 36.7034880000000001  8.3483339999999995 19.4081979999999987
 32.3343300000000013 14.5549800000000005  6.2042450000000002
 37.2252229999999997  2.1903009999999998 16.4788600000000010
 49.2263840000000030  8.7267130000000002 15.3609960000000001
 37.7138750000000016  5.4931539999999996  3.8432610000000000
 53.6989629999999991  7.7463040000000003 21.5841069999999995
 45.8833940000000027 13.2251639999999995  0.6861960000000000
 15.9043720000000004  0.3249540000000000 16.5416239999999988
 12.8098209999999995  4.0589459999999997 14.7012689999999999
 45.3634130000000013 19.7096760000000017 13.8162839999999996
 15.4806109999999997  6.4565180000000000 15.2369939999999993
 157.2766430000000071 18.9153009999999995  9.9116920000000004
 30.7116270000000000  8.7639169999999993 17.2997669999999992
 12.8337149999999998 20.8349329999999995 17.7086879999999987
 31.4678669999999983 20.5364849999999990  4.5405629999999997
 22.7422959999999996 20.1327999999999996 12.3457550000000005
 21.5609159999999989 12.9902949999999997  6.8249259999999996