Cu  C 
 1.0000000000000000
   160.8448789999999917    0.0000000000000000    0.0000000000000000
     0.0000000000000000   21.6897599999999997    0.0000000000000000
     0.0000000000000000    0.0000000000000000   21.6897599999999997
 Cu  C  
 432 521
Cartesian
  0.0000000000000000  0.0000000000000000  0.0000000000000000
  0.0000000000000000  1.8074730000000001  1.8074730000000001
  1.9456580000000001  0.0611940000000000  1.8051459999999999
  1.9393020000000001  1.7699920000000000 21.6518049999999995
  0.0000000000000000  0.0000000000000000  3.6149670000000000
  0.0000000000000000  1.8074730000000001  5.4224399999999999
  2.0540590000000001 21.6029389999999992  5.4668049999999999
  1.9519890000000000  1.8297460000000001  3.7404400000000000
  0.0000000000000000  0.0000000000000000  7.2299129999999998
  0.0000000000000000  1.8074730000000001  9.0374070000000000
  2.0399740000000000  0.1864980000000000  8.8491990000000005
  2.0131899999999998  1.9098720000000000  7.2355650000000002
  0.0000000000000000  0.0000000000000000 10.8448799999999999
  0.0000000000000000  1.8074730000000001 12.6523529999999997
  1.9914200000000000  0.0175850000000000 12.6340819999999994
  2.0014669999999999  1.7863500000000001 10.7616320000000005
  0.0000000000000000  0.0000000000000000 14.4598469999999999
  0.0000000000000000  1.8074730000000001 16.2673200000000016
  1.9004030000000001  0.0316410000000000 16.2017270000000018
  2.0125600000000001  1.8962980000000000 14.4184699999999992
  0.0000000000000000  0.0000000000000000 18.0747929999999997
  0.0000000000000000  1.8074730000000001 19.8822870000000016
  2.0185190000000000 21.6170809999999989 19.9129840000000016
  1.9918460000000000  1.7672600000000001 18.1013529999999996
  0.0000000000000000  3.6149670000000000  0.0000000000000000
  0.0000000000000000  5.4224399999999999  1.8074730000000001
  1.9950930000000000  3.5948080000000000  1.8528519999999999
  1.9794980000000000  5.3721519999999998  0.0320130000000000
  0.0000000000000000  3.6149670000000000  3.6149670000000000
  0.0000000000000000  5.4224399999999999  5.4224399999999999
  2.1038269999999999  3.5920550000000002  5.3779930000000000
  1.9682759999999999  5.3768110000000000  3.5876850000000000
  0.0000000000000000  3.6149670000000000  7.2299129999999998
  0.0000000000000000  5.4224399999999999  9.0374070000000000
  1.9645379999999999  3.7282069999999998  9.1302540000000008
  2.0209290000000002  5.4274860000000000  7.2236399999999996
  0.0000000000000000  3.6149670000000000 10.8448799999999999
  0.0000000000000000  5.4224399999999999 12.6523529999999997
  1.9153480000000001  3.6575989999999998 12.5982109999999992
  1.9494170000000000  5.4997920000000002 10.9506530000000009
  0.0000000000000000  3.6149670000000000 14.4598469999999999
  0.0000000000000000  5.4224399999999999 16.2673200000000016
  1.9815650000000000  3.4984690000000001 16.2612610000000011
  2.0254089999999998  5.3356930000000000 14.5908350000000002
  0.0000000000000000  3.6149670000000000 18.0747929999999997
  0.0000000000000000  5.4224399999999999 19.8822870000000016
  2.0079039999999999  3.6970960000000002 19.8914730000000013
  1.9770529999999999  5.3486570000000002 18.0292770000000004
  0.0000000000000000  7.2299129999999998  0.0000000000000000
  0.0000000000000000  9.0374070000000000  1.8074730000000001
  1.9786130000000000  7.2232839999999996  1.8351610000000000
  1.8927769999999999  9.0386559999999996 21.6295059999999992
  0.0000000000000000  7.2299129999999998  3.6149670000000000
  0.0000000000000000  9.0374070000000000  5.4224399999999999
  1.9719120000000001  7.2052880000000004  5.3898239999999999
  1.9347369999999999  9.0840700000000005  3.5803250000000002
  0.0000000000000000  7.2299129999999998  7.2299129999999998
  0.0000000000000000  9.0374070000000000  9.0374070000000000
  2.1160199999999998  7.2665930000000003  9.1555560000000007
  1.9699210000000000  9.1193299999999997  7.3044919999999998
  0.0000000000000000  7.2299129999999998 10.8448799999999999
  0.0000000000000000  9.0374070000000000 12.6523529999999997
  2.1368559999999999  7.2830290000000000 12.8468640000000001
  1.9505300000000001  9.0729819999999997 10.9780590000000000
  0.0000000000000000  7.2299129999999998 14.4598469999999999
  0.0000000000000000  9.0374070000000000 16.2673200000000016
  2.0201699999999998  7.1083860000000003 16.4075400000000009
  2.0497999999999998  9.0367730000000002 14.6480949999999996
  0.0000000000000000  7.2299129999999998 18.0747929999999997
  0.0000000000000000  9.0374070000000000 19.8822870000000016
  2.0668959999999998  7.1615770000000003 19.7956649999999996
  2.0991580000000001  9.0840999999999994 18.0121029999999998
  0.0000000000000000 10.8448799999999999  0.0000000000000000
  0.0000000000000000 12.6523529999999997  1.8074730000000001
  1.9769310000000000 10.8121069999999992  1.7364860000000000
  1.8989389999999999 12.6586020000000001 21.6714050000000000
  0.0000000000000000 10.8448799999999999  3.6149670000000000
  0.0000000000000000 12.6523529999999997  5.4224399999999999
  1.9039470000000001 10.8384529999999994  5.4829420000000004
  2.0082059999999999 12.5963940000000001  3.5489269999999999
  0.0000000000000000 10.8448799999999999  7.2299129999999998
  0.0000000000000000 12.6523529999999997  9.0374070000000000
  2.0061439999999999 10.7576750000000008  9.0502149999999997
  1.9443230000000000 12.6931779999999996  7.2778190000000000
  0.0000000000000000 10.8448799999999999 10.8448799999999999
  0.0000000000000000 12.6523529999999997 12.6523529999999997
  1.9941350000000000 10.8244199999999999 12.7366259999999993
  2.0968860000000000 12.6230550000000008 10.8368620000000000
  0.0000000000000000 10.8448799999999999 14.4598469999999999
  0.0000000000000000 12.6523529999999997 16.2673200000000016
  1.9413879999999999 10.8791860000000007 16.2850380000000001
  2.0024810000000000 12.7216760000000004 14.4281550000000003
  0.0000000000000000 10.8448799999999999 18.0747929999999997
  0.0000000000000000 12.6523529999999997 19.8822870000000016
  2.0564209999999998 10.8461689999999997 19.9060500000000005
  2.0093450000000002 12.6908600000000007 18.1766429999999986
  0.0000000000000000 14.4598469999999999  0.0000000000000000
  0.0000000000000000 16.2673200000000016  1.8074730000000001
  1.9850470000000000 14.4021749999999997  1.8003270000000000
  1.9811609999999999 16.2763500000000008  0.0371240000000000
  0.0000000000000000 14.4598469999999999  3.6149670000000000
  0.0000000000000000 16.2673200000000016  5.4224399999999999
  1.9787170000000001 14.4730010000000000  5.3881290000000002
  2.1438489999999999 16.3900620000000004  3.6108060000000002
  0.0000000000000000 14.4598469999999999  7.2299129999999998
  0.0000000000000000 16.2673200000000016  9.0374070000000000
  1.9685880000000000 14.5566800000000001  9.0391259999999996
  1.9909330000000001 16.2200080000000000  7.1422340000000002
  0.0000000000000000 14.4598469999999999 10.8448799999999999
  0.0000000000000000 16.2673200000000016 12.6523529999999997
  2.0222310000000001 14.4235419999999994 12.7188490000000005
  1.9950479999999999 16.2594090000000016 10.9653569999999991
  0.0000000000000000 14.4598469999999999 14.4598469999999999
  0.0000000000000000 16.2673200000000016 16.2673200000000016
  1.9890540000000001 14.6592249999999993 16.2497450000000008
  1.9412069999999999 16.3057580000000009 14.4294250000000002
  0.0000000000000000 14.4598469999999999 18.0747929999999997
  0.0000000000000000 16.2673200000000016 19.8822870000000016
  2.0818970000000001 14.4685129999999997 19.9338300000000004
  1.9324280000000000 16.3053239999999988 18.1610249999999986
  0.0000000000000000 18.0747929999999997  0.0000000000000000
  0.0000000000000000 19.8822870000000016  1.8074730000000001
  2.0361419999999999 18.1567189999999989  1.8987820000000000
  2.1077780000000002 19.8692740000000008  0.0816970000000000
  0.0000000000000000 18.0747929999999997  3.6149670000000000
  0.0000000000000000 19.8822870000000016  5.4224399999999999
  2.0555020000000002 18.1408820000000013  5.4867470000000003
  2.0882250000000000 19.9090220000000002  3.6229089999999999
  0.0000000000000000 18.0747929999999997  7.2299129999999998
  0.0000000000000000 19.8822870000000016  9.0374070000000000
  2.0161430000000000 17.8748989999999992  8.9856440000000006
  1.9506600000000001 19.8757969999999986  7.2889730000000004
  0.0000000000000000 18.0747929999999997 10.8448799999999999
  0.0000000000000000 19.8822870000000016 12.6523529999999997
  1.9508000000000001 18.0005060000000014 12.7314900000000009
  1.9937879999999999 19.8337670000000017 10.8334550000000007
  0.0000000000000000 18.0747929999999997 14.4598469999999999
  0.0000000000000000 19.8822870000000016 16.2673200000000016
  2.0061619999999998 18.0245749999999987 16.2975759999999994
  1.9945290000000000 19.8849570000000000 14.4687669999999997
  0.0000000000000000 18.0747929999999997 18.0747929999999997
  0.0000000000000000 19.8822870000000016 19.8822870000000016
  1.9988690000000000 18.0486390000000014 20.0081430000000005
  2.0233050000000001 19.8345619999999982 18.1312330000000017
  3.8687630000000000  0.0731830000000000 -0.0049670000000000
  3.8931900000000002  1.6567909999999999  1.8384190000000000
  5.8804410000000003  0.1259850000000000  1.7714639999999999
  5.8351379999999997  1.8657779999999999 21.6561869999999992
  3.9019149999999998 21.7021000000000015  3.5487750000000000
  3.9498840000000000  1.7602530000000001  5.4221420000000000
  5.7957179999999999 21.6585730000000005  5.3922780000000001
  5.7660830000000001  1.8489430000000000  3.6420309999999998
  3.9359020000000000  0.0568200000000000  7.3357460000000003
  3.8436309999999998  1.9410980000000000  9.0735790000000005
  5.8470880000000003  0.0512160000000000  8.9568449999999995
  5.7652159999999997  1.8766480000000001  7.2158519999999999
  3.8060109999999998  0.0035260000000000 10.6887910000000002
  3.7725010000000001  1.9241280000000001 12.6167099999999994
  5.7142879999999998  0.0605490000000000 12.6845800000000004
  5.6401930000000000  1.7760499999999999 10.7672039999999996
  3.7227450000000002  0.0218770000000000 14.3977100000000000
  3.9726129999999999  1.7875230000000000 16.2836250000000007
  5.8159950000000000 21.6600380000000001 16.3023279999999993
  5.5839470000000002  1.7433220000000000 14.4260540000000006
  3.9081660000000000 -0.0020660000000000 18.0874750000000013
  3.8994179999999998  1.9684790000000001 19.8900460000000017
  5.8266020000000003  0.0673070000000000 19.9105699999999999
  5.8381910000000001  1.7863460000000000 18.1914100000000012
  3.8468789999999999  3.6357349999999999  0.0575420000000000
  3.8374570000000001  5.4811090000000000  1.9261990000000000
  5.7426040000000000  3.5935679999999999  1.8294950000000001
  5.6807160000000003  5.3903610000000004 21.4801940000000009
  3.9708329999999998  3.5277530000000001  3.5781070000000001
  3.8719830000000002  5.5182599999999997  5.4081440000000001
  5.6928859999999997  3.8035720000000000  5.4367570000000001
  5.6593429999999998  5.4614929999999999  3.5793089999999999
  3.9105400000000001  3.7388610000000000  7.2264980000000003
  3.9120490000000001  5.5026200000000003  9.1165240000000001
  5.8013000000000003  3.6565610000000000  9.1999250000000004
  5.6898010000000001  5.4776490000000004  7.3532229999999998
  3.8057740000000000  3.7247249999999998 10.9486819999999998
  3.9051819999999999  5.5124170000000001 12.7657059999999998
  5.7618130000000001  3.6374510000000000 12.5410489999999992
  5.8107470000000001  5.5490550000000001 10.8075969999999995
  3.9084810000000001  3.6288969999999998 14.4299900000000001
  3.9253239999999998  5.4078099999999996 16.2825839999999999
  5.7999010000000002  3.6294580000000001 16.2879700000000014
  5.7564380000000002  5.4331280000000000 14.4571600000000000
  3.9379680000000001  3.5708880000000001 17.9541870000000010
  3.8798029999999999  5.3382550000000002 19.7720920000000007
  5.7696329999999998  3.6102460000000001 19.7975519999999996
  5.8531719999999998  5.4334699999999998 18.0527060000000006
  3.7571699999999999  7.1279969999999997 21.6084400000000016
  3.8072040000000000  9.0188970000000008  1.8311789999999999
  5.7040749999999996  7.1850990000000001  1.5774729999999999
  5.7791430000000004  9.0478989999999992 21.5884700000000009
  3.7546330000000001  7.2826730000000000  3.6478750000000000
  3.7470450000000000  9.0745380000000004  5.4468249999999996
  5.7212209999999999  7.1769119999999997  5.4213449999999996
  5.6452749999999998  8.9579670000000000  3.6260089999999998
  3.8384420000000001  7.2628430000000002  7.3221239999999996
  3.9609480000000001  9.0505790000000008  9.2511369999999999
  5.7613450000000004  7.3212330000000003  9.0276610000000002
  5.6945779999999999  9.1073629999999994  7.1776549999999997
  3.9013320000000000  7.3213229999999996 10.9963320000000007
  3.9056600000000001  9.1039610000000000 12.7593949999999996
  5.9269800000000004  7.1691099999999999 12.6774319999999996
  5.7719969999999998  9.1866249999999994 10.8938279999999992
  3.8923450000000002  7.2399969999999998 14.4844639999999991
  3.9344640000000002  9.0598060000000000 16.3596709999999987
  5.7846089999999997  7.1986420000000004 16.1682060000000014
  5.8369970000000002  8.9754290000000001 14.5701079999999994
  3.9802170000000001  7.1778779999999998 17.9377870000000001
  3.8937240000000002  8.9892029999999998 19.8725980000000000
  5.7586709999999997  7.1747019999999999 19.8071149999999996
  5.8824959999999997  9.0215840000000007 18.0476139999999994
  3.9124639999999999 10.8493289999999991  0.0021330000000000
  3.8922759999999998 12.6673150000000003  1.7992630000000001
  5.6841650000000001 10.7045910000000006  1.7528120000000000
  5.8278889999999999 12.6509590000000003 21.6795930000000006
  3.8248850000000001 10.8072440000000007  3.5134479999999999
  3.8380700000000001 12.5463579999999997  5.5118239999999998
  5.7299100000000003 10.8032100000000000  5.4464249999999996
  5.7496010000000002 12.5393589999999993  3.5758220000000001
  3.8208669999999998 10.7647549999999992  7.3306120000000004
  3.9120080000000002 12.6895100000000003  9.0945929999999997
  5.7468599999999999 10.8881370000000004  8.9980290000000007
  5.6542469999999998 12.6502199999999991  7.2981439999999997
  3.9693980000000000 10.8780690000000000 10.9220450000000007
  3.9506739999999998 12.5637760000000007 12.7301079999999995
  5.8429700000000002 10.8431230000000003 12.7900329999999993
  5.8608029999999998 12.6278520000000007 10.8355820000000005
  3.8812289999999998 10.8919189999999997 14.6187439999999995
  3.7960530000000001 12.8159399999999994 16.2840150000000001
  5.7911869999999999 10.8352039999999992 16.3544790000000013
  5.8767339999999999 12.6758790000000001 14.6006839999999993
  3.9086650000000001 10.8668420000000001 18.0913080000000015
  4.0114630000000000 12.6674419999999994 19.7726049999999987
  5.7253860000000003 10.8777399999999993 19.7877630000000018
  5.8657579999999996 12.7303329999999999 18.0653040000000011
  3.8713449999999998 14.4289020000000008 21.6127080000000014
  3.8777979999999999 16.2234960000000008  1.8036390000000000
  5.7888279999999996 14.4655819999999995  1.8606160000000000
  5.8658989999999998 16.2672750000000015  0.0252530000000000
  4.0025950000000003 14.3272990000000000  3.8000650000000000
  3.9377540000000000 16.2441570000000013  5.3546769999999997
  5.8098580000000002 14.3273489999999999  5.4650410000000003
  5.7823630000000001 16.2087110000000010  3.6500170000000001
  3.8867560000000001 14.4829770000000000  7.1792220000000002
  3.9791789999999998 16.1933830000000007  9.1044979999999995
  5.8658159999999997 14.3377710000000000  9.0189690000000002
  5.8024560000000003 16.1889630000000011  7.2941459999999996
  4.0326880000000003 14.4413549999999997 10.9052089999999993
  3.9173149999999999 16.3470280000000017 12.7212010000000006
  5.8415780000000002 14.4540869999999995 12.6396339999999991
  5.8703370000000001 16.3241750000000003 10.9203109999999999
  3.8675660000000001 14.5537919999999996 14.5373610000000006
  3.9266960000000002 16.3144570000000009 16.3095520000000000
  5.7656859999999996 14.5389660000000003 16.3610159999999993
  5.8863960000000004 16.2903239999999983 14.4926899999999996
  3.9533410000000000 14.4952799999999993 18.1137450000000015
  3.9874820000000000 16.3999249999999996 19.9556530000000016
  5.7275330000000002 14.5685079999999996 19.9945050000000002
  5.8973110000000002 16.3485569999999996 18.1456739999999996
  3.8900049999999999 18.1630499999999984  0.0836970000000000
  4.0107889999999999 19.9596850000000003  1.8751110000000000
  5.8300640000000001 18.0182649999999995  1.8324800000000001
  5.8697699999999999 19.9928759999999990  0.1486060000000000
  4.0572780000000002 18.1381259999999997  3.6080120000000000
  3.9914830000000001 19.9425400000000010  5.4938849999999997
  5.8132809999999999 18.1189700000000009  5.4364179999999998
  5.8721620000000003 19.9712390000000006  3.5743040000000001
  3.9539550000000001 18.0318620000000003  7.2219470000000001
  3.9154580000000001 19.8693869999999997  9.0264330000000008
  5.7158470000000001 18.0948700000000002  9.0819159999999997
  5.8179509999999999 19.8375309999999985  7.2780610000000001
  3.9060790000000001 18.0221690000000017 10.8123550000000002
  3.8626640000000001 19.8473129999999998 12.5581280000000000
  5.7609669999999999 18.1525929999999995 12.6233439999999995
  5.7761699999999996 19.9766669999999991 10.8580150000000000
  3.9549230000000000 18.1749779999999994 14.4571629999999995
  3.8700589999999999 19.8928189999999994 16.3133780000000002
  5.8354350000000004 18.2002239999999986 16.2710180000000015
  5.8051810000000001 19.9646079999999984 14.4545049999999993
  4.0044329999999997 18.1587369999999986 18.1274729999999984
  3.9721970000000000 19.8729650000000007 19.9786819999999992
  5.7981309999999997 18.0824689999999997 19.9558190000000018
  5.8652499999999996 19.9449840000000016 18.1302349999999990
  7.7569090000000003  0.1231740000000000  0.1248900000000000
  7.7787090000000001  1.9795350000000000  1.9658819999999999
  9.7132030000000000  0.1379090000000000  1.9734879999999999
  9.5880030000000005  1.8746039999999999 21.6262690000000006
  7.7752290000000004  0.1401440000000000  3.7527720000000002
  7.5607280000000001  2.0519400000000001  5.4044790000000003
  9.8018780000000003 21.5572380000000017  5.3598889999999999
  9.7386579999999991  1.8975580000000001  3.9276460000000002
  7.7492179999999999  0.0316400000000000  7.0063290000000000
  7.6308970000000000  1.7341880000000001  8.8943250000000003
  9.6961010000000005  0.3035480000000000  8.8743269999999992
  9.5241089999999993  1.9674000000000000  7.0404869999999997
  7.6583829999999997  0.2317120000000000 10.8043940000000003
  7.6436099999999998  1.6899599999999999 12.7498020000000007
 10.0171539999999997 21.4126909999999988 12.8145509999999998
  9.8243939999999998  1.5774960000000000 11.2115799999999997
  7.7924660000000001 21.6542530000000006 14.4206719999999997
  7.5710930000000003  1.8709709999999999 16.2657120000000006
  9.8507160000000002  0.2107900000000000 16.2838509999999985
  9.6412809999999993  1.9316549999999999 14.1851950000000002
  7.7510040000000000 21.6574629999999999 18.0015050000000016
  7.7354029999999998  1.8728080000000000 19.8395520000000012
  9.8586069999999992 21.5439229999999995 20.0711499999999994
  9.6692219999999995  1.8217190000000001 18.2586170000000010
  7.6798609999999998  3.5873879999999998 21.6171609999999994
  7.4882479999999996  5.4565500000000000  1.6751280000000000
  9.6927990000000008  3.5775060000000001  1.7908729999999999
  9.5118500000000008  5.4712930000000002  0.1424710000000000
  7.5938629999999998  3.7467180000000000  3.5869100000000000
  7.6022959999999999  5.4295929999999997  5.4845379999999997
  9.5406250000000004  3.9526840000000001  5.3677960000000002
  9.4930099999999999  5.6231660000000003  3.3449670000000000
  7.5934249999999999  3.7977979999999998  7.3182470000000004
  7.6441879999999998  5.4472579999999997  9.1272330000000004
  9.6948349999999994  3.2466960000000000  9.2286509999999993
  9.7614820000000009  5.3602439999999998  7.5746830000000003
  7.7341780000000000  3.3821180000000002 10.8167910000000003
  7.7038089999999997  5.4429369999999997 12.4994770000000006
  9.5845459999999996  3.8104390000000001 12.3772059999999993
  9.7152259999999995  5.4737150000000003 10.6179450000000006
  7.6396569999999997  3.5725189999999998 14.4106780000000008
  7.7378970000000002  5.3089139999999997 16.2626680000000015
  9.6356979999999997  3.3616809999999999 16.2125330000000005
  9.6408579999999997  5.2681230000000001 14.4586190000000006
  7.7679799999999997  3.5829659999999999 18.0855710000000016
  7.6031550000000001  5.5231859999999999 19.7650380000000006
  9.6820679999999992  3.8355649999999999 19.9050529999999988
  9.6802799999999998  5.4927070000000002 17.7993319999999997
  7.6536869999999997  7.2210140000000003 21.5475920000000016
  7.5713270000000001  8.9979600000000008  1.9262999999999999
  9.6399860000000004  7.5822760000000002  1.6285719999999999
  9.6017880000000009  9.2711340000000000 21.3959110000000017
  7.4374630000000002  7.2314749999999997  3.5342410000000002
  7.6514559999999996  8.9562980000000003  5.4241700000000002
  9.5465929999999997  6.9979019999999998  5.5468539999999997
  9.7259779999999996  8.7518049999999992  3.8658450000000002
  7.6873079999999998  7.2242559999999996  7.3259290000000004
  7.6766019999999999  9.1677040000000005  9.0653240000000004
  9.6034020000000009  7.5525929999999999  9.1146469999999997
  9.7330900000000007  9.0887569999999993  7.1420700000000004
  7.5766289999999996  7.3687459999999998 10.7267519999999994
  7.7256060000000000  9.1273839999999993 12.7555429999999994
  9.8457030000000003  7.1572630000000004 12.5999389999999991
  9.5630170000000003  9.2084650000000003 11.1299480000000006
  7.7824830000000000  7.1967210000000001 14.4585840000000001
  7.6521379999999999  8.9429119999999998 16.1776839999999993
  9.8119610000000002  7.2971259999999996 16.1601460000000010
  9.7681609999999992  9.0544110000000000 14.2637490000000007
  7.6532020000000003  7.2212639999999997 17.9592789999999987
  7.6662319999999999  8.9596219999999995 19.7650819999999996
  9.8125809999999998  7.0499809999999998 19.8826259999999984
  9.7050579999999993  8.8115450000000006 18.0353400000000015
  7.5938189999999999 10.8573330000000006 21.6109189999999991
  7.5813389999999998 12.4583189999999995  1.7946089999999999
  9.6648910000000008 10.6208179999999999  1.9712270000000001
  9.7519960000000001 12.6065699999999996  0.1272890000000000
  7.6645989999999999 10.7750909999999998  3.6793200000000001
  7.6778930000000001 12.5861180000000008  5.4425059999999998
  9.7281099999999991 10.8378730000000001  5.2910649999999997
  9.8177629999999994 12.5948189999999993  3.4706910000000000
  7.6106069999999999 10.8889779999999998  7.2747289999999998
  7.6719369999999998 12.5261049999999994  9.0161829999999998
  9.9071689999999997 10.8157890000000005  9.0551069999999996
  9.6045289999999994 12.5832379999999997  7.2796219999999998
  7.6779599999999997 10.8834769999999992 10.9098869999999994
  7.7069060000000000 12.7034439999999993 12.7104079999999993
  9.6604720000000004 11.1444250000000000 12.8799279999999996
  9.6230619999999991 12.5587590000000002 10.8352489999999992
  7.7212949999999996 10.8338540000000005 14.5935459999999999
  7.6854259999999996 12.8161050000000003 16.3225869999999986
  9.8208950000000002 10.6968800000000002 16.3326110000000000
  9.6935490000000009 12.8372639999999993 14.8040470000000006
  7.6373150000000001 10.8281799999999997 18.0017490000000002
  7.7177559999999996 12.7033059999999995 19.7934100000000015
  9.7787930000000003 11.1518040000000003 19.5748609999999985
  9.6263539999999992 12.7151759999999996 17.8181720000000006
  7.5850629999999999 14.4110859999999992  0.0325100000000000
  7.5377390000000002 16.2122360000000008  1.8309450000000000
  9.4579199999999997 14.5137450000000001  1.7882830000000001
  9.6022739999999995 16.2170640000000006 21.5126559999999998
  7.6736730000000000 14.3721619999999994  3.6412920000000000
  7.6926220000000001 16.1561850000000007  5.4806830000000000
  9.7747170000000008 14.2189340000000009  5.3983850000000002
  9.7305060000000001 16.2333269999999992  3.7362400000000000
  7.7659110000000000 14.4496500000000001  7.3867139999999996
  7.7376920000000000 16.2958150000000010  9.1533610000000003
  9.8452559999999991 14.4881530000000005  9.1940399999999993
  9.6417560000000009 16.2644599999999997  7.3074110000000001
  7.6230960000000003 14.4306009999999993 10.8136609999999997
  7.7158389999999999 16.3382970000000007 12.6806020000000004
  9.6236789999999992 14.2584929999999996 12.6070849999999997
  9.8987669999999994 16.3911869999999986 11.0474709999999998
  7.6401139999999996 14.5553170000000005 14.5391729999999999
  7.6688669999999997 16.4425199999999982 16.4742899999999999
  9.8349480000000007 14.9352309999999999 16.3799770000000002
  9.7691020000000002 16.1429720000000003 14.2888889999999993
  7.7887760000000004 14.5026630000000001 18.1578109999999988
  7.6910559999999997 16.2757609999999993 19.9411960000000015
  9.8121109999999998 14.2822770000000006 20.0570759999999986
  9.8315149999999996 16.3889479999999992 18.4874210000000012
  7.7023000000000001 18.1458189999999995 21.6632509999999989
  7.7166530000000000 19.9684300000000015  1.9503520000000001
  9.5003799999999998 17.8156260000000017  1.7728880000000000
  9.7196569999999998 20.0297449999999984  0.4064000000000000
  7.7171589999999997 18.0132750000000001  3.6684310000000000
  7.7335640000000003 19.8694789999999983  5.4329479999999997
  9.5092730000000003 18.1012400000000007  5.5461099999999997
  9.7874409999999994 19.7017290000000003  3.5905290000000001
  7.7088559999999999 18.0748159999999984  7.3424540000000000
  7.7599760000000000 20.0241830000000007  9.0917910000000006
  9.6490080000000003 18.0948680000000017  9.1108039999999999
  9.7198930000000008 19.9394250000000000  7.4198630000000003
  7.7912980000000003 18.1990909999999992 10.8434419999999996
  7.7374980000000004 20.0028900000000007 12.5854370000000007
  9.7046989999999997 18.3212940000000017 12.5495549999999998
  9.6556780000000000 20.1317950000000003 10.5901660000000000
  7.7191150000000004 18.2106150000000007 14.3834140000000001
  7.8052270000000004 19.7607239999999997 16.3316519999999983
  9.7957870000000007 17.7971579999999996 16.3699849999999998
  9.7293109999999992 19.6669230000000006 14.6799549999999996
  7.7780579999999997 18.1027149999999999 18.2517989999999983
  7.6460990000000004 19.9482050000000015 20.0634629999999987
  9.7050280000000004 18.3813749999999985 20.1030960000000007
  9.7375690000000006 19.9249639999999992 17.9998329999999989
 17.4697789999999991  1.4152590000000000 19.8933390000000010
 47.9570229999999995  1.1438200000000001 20.9557620000000000
 27.1436180000000000  4.4849059999999996 10.4777430000000003
 12.7769610000000000  7.3267429999999996  2.6066639999999999
 18.4032090000000004 11.5594800000000006 14.0721889999999998
 50.3653130000000004  7.4048410000000002  9.9305930000000000
 51.6491720000000001 12.2930580000000003 17.6256659999999989
 38.0777000000000001 15.7157400000000003  2.6835190000000000
 31.4549389999999995  2.1755540000000000  5.3867029999999998
 17.4152759999999986  8.2810469999999992 12.8988099999999992
 49.8218109999999967 19.0992999999999995  1.6490210000000001
 21.2379819999999988 11.7519100000000005 16.2117390000000015
 49.7598279999999988 19.0088040000000014 19.6610329999999998
 26.9592220000000005  8.7668219999999994 11.8536579999999994
 25.1800330000000017  3.8995750000000000  4.3234089999999998
 38.8224710000000002  8.2439699999999991  5.9191159999999998
 21.0810220000000008 16.6625699999999988  3.5734849999999998
 13.3370219999999993  7.7225849999999996 11.6376600000000003
 39.5361189999999993  7.3653409999999999 21.3200660000000006
 32.2426730000000035  8.7631390000000007 21.0892909999999993
 30.5360599999999991  3.6675049999999998 16.9320710000000005
 30.0119690000000006 12.8249329999999997  2.1123910000000001
 19.4217410000000008 18.2399419999999992 12.3974949999999993
 30.1161850000000015  0.5059740000000000  3.0189569999999999
 25.6540870000000005 21.6228769999999990 20.8551779999999987
 44.9149949999999976  7.4452100000000003  7.4231499999999997
 24.6311050000000016  5.6249859999999998  1.7242759999999999
 49.4262190000000032  6.7457580000000004 18.1750520000000009
 39.7720160000000007 13.2192209999999992 13.8775800000000000
 15.6159060000000007  3.8840990000000000 13.9449919999999992
 157.6538649999999961  2.3170940000000000  8.0808560000000007
 42.8838859999999968  6.6550170000000000 12.9723559999999996
 36.6329629999999966  8.0560930000000006  1.8003840000000000
 49.7565269999999984 15.0001920000000002  2.0169880000000000
 15.5791579999999996 16.7747260000000011 17.1668370000000010
 33.1743680000000012  6.3814209999999996  9.6264959999999995
 31.5807089999999988 20.2024019999999993 15.8524600000000007
 19.0530420000000014  8.6993510000000001 16.3917730000000006
 37.9553020000000032 10.3757400000000004 19.8333520000000014
 32.1375880000000009 13.9056180000000005  9.7372990000000001
 37.0552490000000034  2.0445069999999999 17.1212869999999988
 51.5482960000000006  8.0297940000000008 15.5993949999999995
 37.8607540000000000  5.5155089999999998  3.2828900000000001
 53.2783140000000017  6.3764979999999998 20.7000950000000010
 46.4356610000000032 13.2336810000000007  0.4463430000000000
 16.7505479999999984  0.4048150000000000 14.5230599999999992
 12.7424060000000008  5.9753100000000003 15.0431500000000007
 47.1163969999999992 19.9678000000000004 14.0857500000000009
 15.8999290000000002  6.8521989999999997 15.9813969999999994
 157.1692930000000104 13.6467880000000008  8.4062429999999999
 30.1778179999999985 11.3393599999999992 18.3143630000000002
 12.6939189999999993  0.3865160000000000 17.9532869999999996
 33.1858560000000011 20.6763359999999992  4.7033579999999997
 23.5550630000000005 18.4839190000000002 13.1816980000000008
 23.0474749999999986 13.1038300000000003  5.9025720000000002