Cu  C 
 1.0000000000000000
   160.8448789999999917    0.0000000000000000    0.0000000000000000
     0.0000000000000000   21.6897599999999997    0.0000000000000000
     0.0000000000000000    0.0000000000000000   21.6897599999999997
 Cu  C  
 432 521
Cartesian
  0.0000000000000000  0.0000000000000000  0.0000000000000000
  0.0000000000000000  1.8074730000000001  1.8074730000000001
  1.8971340000000001  0.0561620000000000  1.8096030000000001
  1.8937790000000001  1.7925660000000001 21.6322580000000002
  0.0000000000000000  0.0000000000000000  3.6149670000000000
  0.0000000000000000  1.8074730000000001  5.4224399999999999
  2.0195289999999999 21.6551089999999995  5.4612879999999997
  1.9113119999999999  1.8407270000000000  3.6690390000000002
  0.0000000000000000  0.0000000000000000  7.2299129999999998
  0.0000000000000000  1.8074730000000001  9.0374070000000000
  2.0093869999999998  0.1082650000000000  8.9427260000000004
  2.0054120000000002  1.9117230000000001  7.2722740000000003
  0.0000000000000000  0.0000000000000000 10.8448799999999999
  0.0000000000000000  1.8074730000000001 12.6523529999999997
  2.0783740000000002 21.6440899999999985 12.5155300000000000
  2.0588240000000000  1.8060860000000001 10.8626559999999994
  0.0000000000000000  0.0000000000000000 14.4598469999999999
  0.0000000000000000  1.8074730000000001 16.2673200000000016
  2.0661830000000001  0.0218190000000000 16.2118549999999999
  1.9656670000000001  1.7269669999999999 14.3103289999999994
  0.0000000000000000  0.0000000000000000 18.0747929999999997
  0.0000000000000000  1.8074730000000001 19.8822870000000016
  1.9627980000000000 21.6657720000000005 19.9789260000000013
  1.9078980000000001  1.7246939999999999 17.9814790000000002
  0.0000000000000000  3.6149670000000000  0.0000000000000000
  0.0000000000000000  5.4224399999999999  1.8074730000000001
  1.9578700000000000  3.5761820000000002  1.7881160000000000
  1.9728509999999999  5.3798279999999998  0.0631050000000000
  0.0000000000000000  3.6149670000000000  3.6149670000000000
  0.0000000000000000  5.4224399999999999  5.4224399999999999
  2.0853039999999998  3.6059359999999998  5.3609760000000000
  2.0380810000000000  5.3279220000000000  3.7179950000000002
  0.0000000000000000  3.6149670000000000  7.2299129999999998
  0.0000000000000000  5.4224399999999999  9.0374070000000000
  2.1181070000000002  3.5593830000000000  9.1350259999999999
  2.0041890000000002  5.3408980000000001  7.3763110000000003
  0.0000000000000000  3.6149670000000000 10.8448799999999999
  0.0000000000000000  5.4224399999999999 12.6523529999999997
  1.9981979999999999  3.6431800000000001 12.5226769999999998
  1.9397050000000000  5.4116499999999998 10.8239769999999993
  0.0000000000000000  3.6149670000000000 14.4598469999999999
  0.0000000000000000  5.4224399999999999 16.2673200000000016
  2.0379070000000001  3.4780519999999999 16.1775279999999988
  1.9654620000000000  5.3904969999999999 14.4259039999999992
  0.0000000000000000  3.6149670000000000 18.0747929999999997
  0.0000000000000000  5.4224399999999999 19.8822870000000016
  1.9732930000000000  3.6354460000000000 19.7700050000000012
  2.0346760000000002  5.3991400000000001 17.8416519999999998
  0.0000000000000000  7.2299129999999998  0.0000000000000000
  0.0000000000000000  9.0374070000000000  1.8074730000000001
  1.9227570000000000  7.1915380000000004  1.8393590000000000
  1.9572510000000001  9.0478380000000005 21.6532640000000001
  0.0000000000000000  7.2299129999999998  3.6149670000000000
  0.0000000000000000  9.0374070000000000  5.4224399999999999
  1.9647269999999999  7.1849439999999998  5.5134189999999998
  1.9301280000000001  9.0077599999999993  3.6933720000000001
  0.0000000000000000  7.2299129999999998  7.2299129999999998
  0.0000000000000000  9.0374070000000000  9.0374070000000000
  2.0272410000000001  7.3586039999999997  9.2276220000000002
  1.9503910000000000  9.1543749999999999  7.2997389999999998
  0.0000000000000000  7.2299129999999998 10.8448799999999999
  0.0000000000000000  9.0374070000000000 12.6523529999999997
  2.0061410000000000  7.2475129999999996 12.7669049999999995
  2.0180210000000001  9.1192189999999993 10.9447050000000008
  0.0000000000000000  7.2299129999999998 14.4598469999999999
  0.0000000000000000  9.0374070000000000 16.2673200000000016
  2.0323050000000000  7.3000550000000004 16.2553200000000011
  2.0887319999999998  9.0956639999999993 14.6269130000000001
  0.0000000000000000  7.2299129999999998 18.0747929999999997
  0.0000000000000000  9.0374070000000000 19.8822870000000016
  2.0323090000000001  7.1451240000000000 19.7296939999999985
  2.0518109999999998  9.0568740000000005 18.0450100000000013
  0.0000000000000000 10.8448799999999999  0.0000000000000000
  0.0000000000000000 12.6523529999999997  1.8074730000000001
  2.0471300000000001 10.7809439999999999  1.7045220000000001
  2.0340300000000000 12.6643600000000003 21.6662210000000002
  0.0000000000000000 10.8448799999999999  3.6149670000000000
  0.0000000000000000 12.6523529999999997  5.4224399999999999
  1.9637849999999999 10.8798510000000004  5.3917849999999996
  2.0069490000000001 12.5547540000000009  3.5786810000000000
  0.0000000000000000 10.8448799999999999  7.2299129999999998
  0.0000000000000000 12.6523529999999997  9.0374070000000000
  1.9635560000000001 10.9070250000000009  9.1262329999999992
  2.0651079999999999 12.7211020000000001  7.3122689999999997
  0.0000000000000000 10.8448799999999999 10.8448799999999999
  0.0000000000000000 12.6523529999999997 12.6523529999999997
  2.0252400000000002 10.8301580000000008 12.7063340000000000
  2.0355799999999999 12.6946089999999998 10.8898329999999994
  0.0000000000000000 10.8448799999999999 14.4598469999999999
  0.0000000000000000 12.6523529999999997 16.2673200000000016
  2.0268660000000001 10.7993070000000007 16.2416160000000005
  2.0731459999999999 12.6453609999999994 14.4404889999999995
  0.0000000000000000 10.8448799999999999 18.0747929999999997
  0.0000000000000000 12.6523529999999997 19.8822870000000016
  2.0452569999999999 10.8641980000000000 19.8805399999999999
  2.0847840000000000 12.5853999999999999 18.1338079999999984
  0.0000000000000000 14.4598469999999999  0.0000000000000000
  0.0000000000000000 16.2673200000000016  1.8074730000000001
  2.0001679999999999 14.3984159999999992  1.8487899999999999
  1.9674130000000001 16.2163159999999991  0.1153350000000000
  0.0000000000000000 14.4598469999999999  3.6149670000000000
  0.0000000000000000 16.2673200000000016  5.4224399999999999
  2.0241690000000001 14.4145479999999999  5.3157880000000004
  1.9980430000000000 16.3412219999999984  3.5619540000000001
  0.0000000000000000 14.4598469999999999  7.2299129999999998
  0.0000000000000000 16.2673200000000016  9.0374070000000000
  2.0008200000000000 14.5748979999999992  9.0803759999999993
  1.8989769999999999 16.2502800000000001  7.2459959999999999
  0.0000000000000000 14.4598469999999999 10.8448799999999999
  0.0000000000000000 16.2673200000000016 12.6523529999999997
  1.9861059999999999 14.4764640000000000 12.7482810000000004
  1.9335230000000001 16.2066710000000000 10.9819549999999992
  0.0000000000000000 14.4598469999999999 14.4598469999999999
  0.0000000000000000 16.2673200000000016 16.2673200000000016
  2.0000760000000000 14.4367780000000003 16.2302840000000010
  1.9981560000000000 16.3122569999999989 14.3898209999999995
  0.0000000000000000 14.4598469999999999 18.0747929999999997
  0.0000000000000000 16.2673200000000016 19.8822870000000016
  1.9868450000000000 14.4222990000000006 19.8434829999999991
  2.0304030000000002 16.3433010000000003 18.0711620000000011
  0.0000000000000000 18.0747929999999997  0.0000000000000000
  0.0000000000000000 19.8822870000000016  1.8074730000000001
  2.0512720000000000 18.2085839999999983  1.8966660000000000
  2.0821570000000000 19.9265700000000017  0.0694480000000000
  0.0000000000000000 18.0747929999999997  3.6149670000000000
  0.0000000000000000 19.8822870000000016  5.4224399999999999
  1.9614650000000000 18.1755409999999991  5.3576329999999999
  1.9918680000000000 19.9564169999999983  3.5384609999999999
  0.0000000000000000 18.0747929999999997  7.2299129999999998
  0.0000000000000000 19.8822870000000016  9.0374070000000000
  1.9712380000000000 17.8476430000000015  9.0001099999999994
  1.9133080000000000 19.7919729999999987  7.1962570000000001
  0.0000000000000000 18.0747929999999997 10.8448799999999999
  0.0000000000000000 19.8822870000000016 12.6523529999999997
  2.0732270000000002 18.1178249999999998 12.6280979999999996
  2.0352610000000002 19.8058060000000005 10.7663069999999994
  0.0000000000000000 18.0747929999999997 14.4598469999999999
  0.0000000000000000 19.8822870000000016 16.2673200000000016
  1.9500729999999999 18.0959970000000006 16.2488269999999986
  2.0098680000000000 19.9030120000000004 14.4075310000000005
  0.0000000000000000 18.0747929999999997 18.0747929999999997
  0.0000000000000000 19.8822870000000016 19.8822870000000016
  1.9183950000000001 18.0623809999999985 19.9086539999999985
  2.0063110000000002 19.8831810000000004 18.1456030000000013
  3.8330839999999999  0.0585470000000000  0.0650910000000000
  3.8136869999999998  1.6802070000000000  1.8095859999999999
  5.7855390000000000  0.0978430000000000  1.8951700000000000
  5.6963819999999998  1.8346940000000000  0.0306190000000000
  3.8776920000000001 21.5874209999999991  3.6670669999999999
  3.8845399999999999  1.7174650000000000  5.4753740000000004
  5.8482200000000004 21.6316829999999989  5.4928249999999998
  5.7118409999999997  1.8215280000000000  3.7373609999999999
  3.8918699999999999 21.6528449999999992  7.3188019999999998
  3.9254389999999999  1.8073870000000001  9.0629480000000004
  5.8587400000000001 21.6163120000000006  8.8566590000000005
  5.6990780000000001  1.8724160000000001  7.2178050000000002
  3.9425629999999998 21.6043100000000017 10.7438280000000006
  3.8698709999999998  1.7866640000000000 12.6357719999999993
  5.7881359999999997 21.6017459999999986 12.6356730000000006
  5.7484229999999998  1.6917409999999999 10.8824170000000002
  3.9076590000000002 21.6399860000000004 14.2946829999999991
  3.9070969999999998  1.7809600000000001 16.2467669999999984
  5.7002540000000002 21.6324809999999985 16.3445259999999983
  5.7489619999999997  1.8017900000000000 14.4300429999999995
  3.7597969999999998  0.0274690000000000 18.1621090000000009
  3.7994960000000000  1.7757130000000001 19.8410979999999988
  5.7565510000000000  0.0934730000000000 19.8497400000000006
  5.8527189999999996  1.7409650000000001 18.1132729999999995
  3.8655580000000000  3.6441810000000001  0.0900440000000000
  3.8381099999999999  5.4627699999999999  1.8274980000000001
  5.6666540000000003  3.6127379999999998  1.8108919999999999
  5.7083690000000002  5.4393989999999999 21.5794969999999999
  3.9204880000000002  3.5747369999999998  3.5529169999999999
  3.8105069999999999  5.4724219999999999  5.5318329999999998
  5.6437200000000001  3.6927910000000002  5.4465060000000003
  5.5860430000000001  5.5422859999999998  3.6215389999999998
  3.8347410000000002  3.6452909999999998  7.1730150000000004
  3.9183829999999999  5.4246330000000000  9.1885150000000007
  5.7690609999999998  3.5589360000000001  9.0787929999999992
  5.6595659999999999  5.4503040000000000  7.3103490000000004
  3.9642780000000002  3.5626609999999999 10.8664950000000005
  3.8910950000000000  5.5018729999999998 12.6374340000000007
  5.8108420000000001  3.5121250000000002 12.6438009999999998
  5.8238360000000000  5.4620740000000003 10.9243380000000005
  3.8547579999999999  3.6175120000000001 14.3705630000000006
  3.9639229999999999  5.3456539999999997 16.2499180000000010
  5.8019920000000003  3.5874910000000000 16.3002639999999985
  5.7655979999999998  5.3146259999999996 14.4319790000000001
  3.9003730000000001  3.6362830000000002 17.9734489999999987
  3.8481540000000001  5.3258340000000004 19.8772599999999997
  5.7055629999999997  3.5321380000000002 19.8401919999999983
  5.8871450000000003  5.3932070000000003 18.0397260000000017
  3.7868620000000002  7.2416109999999998 21.6125259999999990
  3.9190360000000002  8.9386500000000009  1.7307720000000000
  5.7729929999999996  7.2983079999999996  1.6658970000000000
  5.8181789999999998  8.9593270000000000 21.6139100000000006
  3.8002110000000000  7.3150979999999999  3.6839360000000001
  3.8329830000000000  9.0459720000000008  5.5467870000000001
  5.7431299999999998  7.2024039999999996  5.4939359999999997
  5.6783270000000003  9.0693889999999993  3.6751879999999999
  3.8059759999999998  7.2677719999999999  7.4139600000000003
  3.9425919999999999  9.1952090000000002  9.1692769999999992
  5.6673359999999997  7.2538859999999996  9.0385249999999999
  5.7762409999999997  9.1904190000000003  7.1975239999999996
  3.8597320000000002  7.2881900000000002 10.9230389999999993
  3.9985550000000001  9.0218600000000002 12.7270129999999995
  5.9329130000000001  7.2396370000000001 12.6569170000000000
  5.7610919999999997  9.1952529999999992 10.9255700000000004
  3.8827859999999998  7.2589930000000003 14.4555249999999997
  4.0551990000000000  9.0588020000000000 16.3615910000000007
  5.7482400000000000  7.1234149999999996 16.1797870000000010
  5.9281889999999997  9.0740630000000007 14.4843060000000001
  3.9827830000000000  7.0422659999999997 17.9663840000000015
  3.8813300000000002  8.9521270000000008 19.8599810000000012
  5.7949219999999997  7.2655180000000001 19.7993459999999999
  5.8771389999999997  9.1244250000000005 18.0469469999999994
  3.8759180000000000 10.7486700000000006  0.0168880000000000
  3.9908950000000001 12.6057520000000007  1.7754449999999999
  5.7988460000000002 10.7092589999999994  1.7657650000000000
  5.9004300000000001 12.5662059999999993  0.0791290000000000
  3.8488060000000002 10.7609379999999994  3.6437390000000001
  3.8570890000000002 12.6336619999999993  5.5096800000000004
  5.6753999999999998 10.8920949999999994  5.4500869999999999
  5.8414450000000002 12.4700129999999998  3.5712440000000001
  3.8123089999999999 10.7805450000000000  7.3128070000000003
  3.9081070000000002 12.7978050000000003  9.0917049999999993
  5.7553549999999998 10.9744980000000005  9.0228040000000007
  5.7449890000000003 12.7617080000000005  7.1902879999999998
  3.9326550000000000 10.9438329999999997 10.9148139999999998
  3.9884580000000001 12.6539920000000006 12.7513620000000003
  5.8568829999999998 10.9633029999999998 12.7806960000000007
  5.8989669999999998 12.7080719999999996 10.8355779999999999
  3.9587089999999998 10.9191099999999999 14.5895550000000007
  3.9350179999999999 12.7223229999999994 16.3797120000000014
  5.8901440000000003 10.8984190000000005 16.2288159999999984
  5.8331109999999997 12.8245480000000001 14.5548439999999992
  3.9522499999999998 10.8408599999999993 18.0749360000000010
  4.0513990000000000 12.5627510000000004 19.9518580000000014
  5.8535519999999996 10.7557799999999997 19.9168090000000007
  5.7667830000000002 12.7336910000000003 18.1148080000000000
  3.8028480000000000 14.4755149999999997 21.6890709999999984
  3.9183849999999998 16.1851629999999993  1.7917010000000000
  5.7232149999999997 14.5005129999999998  1.8765510000000001
  5.8128089999999997 16.2670819999999985  0.0976010000000000
  3.9564010000000001 14.3934060000000006  3.6602030000000001
  3.8324080000000000 16.3411919999999995  5.3613090000000003
  5.8648959999999999 14.4158489999999997  5.3902910000000004
  5.8148590000000002 16.2704880000000003  3.6580800000000000
  3.8871259999999999 14.5587780000000002  7.1009669999999998
  3.9588489999999998 16.2073479999999996  9.0279450000000008
  5.9229430000000001 14.4499010000000006  9.0055470000000000
  5.7988210000000002 16.1787150000000004  7.2406280000000001
  4.0384500000000001 14.4965050000000009 10.9651739999999993
  3.9749590000000001 16.3171789999999994 12.6191779999999998
  5.9985830000000000 14.5731110000000008 12.7156710000000004
  5.8297879999999997 16.2723039999999983 10.8497690000000002
  3.8387989999999999 14.5468560000000000 14.5206909999999993
  3.8902310000000000 16.2989840000000008 16.3568379999999998
  5.8987550000000004 14.5976110000000006 16.4686300000000010
  5.8488530000000001 16.3022810000000007 14.6216760000000008
  3.8715709999999999 14.4805779999999995 18.0869500000000016
  3.8575529999999998 16.3458709999999989 20.0070659999999982
  5.7431890000000001 14.4753749999999997 20.0550490000000003
  5.7757509999999996 16.3455259999999996 18.1353420000000014
  3.8799579999999998 18.0845249999999993  0.1126020000000000
  4.0038660000000004 20.0295549999999984  1.8711560000000000
  5.8037099999999997 18.1193249999999999  1.9001040000000000
  5.6831730000000000 20.0172099999999986  0.1848480000000000
  4.0420100000000003 18.0509419999999992  3.5634749999999999
  3.8849700000000000 19.9374290000000016  5.4174080000000000
  5.7612560000000004 18.0449410000000015  5.4429369999999997
  5.8340699999999996 19.9051919999999996  3.7656830000000001
  3.9222039999999998 18.0641520000000000  7.1402140000000003
  3.8848080000000000 19.8247290000000014  8.9039690000000000
  5.7868810000000002 18.0858470000000011  9.0327839999999995
  5.8229290000000002 19.7692729999999983  7.2065700000000001
  3.9496959999999999 18.0715739999999983 10.6834260000000008
  4.0494729999999999 19.8184560000000012 12.6211210000000005
  5.9354820000000004 18.0380469999999988 12.6063969999999994
  5.9114760000000004 19.9460030000000010 10.7480080000000005
  4.0062129999999998 18.0301369999999999 14.4922409999999999
  3.8067090000000001 19.7844930000000012 16.3077299999999994
  5.7518570000000002 18.0762050000000016 16.3544599999999996
  5.8420569999999996 19.8357099999999988 14.4394620000000007
  3.9656009999999999 18.0939300000000003 18.1560789999999983
  3.8870680000000002 19.8909810000000000 19.9857370000000003
  5.7548880000000002 18.1962760000000010 20.0374079999999992
  5.7916819999999998 20.0154050000000012 18.2158160000000002
  7.7329910000000002  0.1212120000000000  0.2194490000000000
  7.6760989999999998  1.8261529999999999  1.9478130000000000
  9.7857420000000008  0.2209340000000000  2.0482010000000002
  9.6052029999999995  1.7624400000000000 21.5812820000000016
  7.6917900000000001  0.1535870000000000  3.7481680000000002
  7.5733100000000002  1.9932330000000000  5.3559700000000001
  9.9602850000000007 21.5193919999999999  5.2872690000000002
  9.7716379999999994  1.9523050000000000  3.9798079999999998
  7.7936730000000001  0.0391070000000000  6.9899699999999996
  7.6653909999999996  1.7277570000000000  8.9933969999999999
  9.7011360000000000  0.2230300000000000  8.8756310000000003
  9.6218920000000008  1.8276630000000000  7.0872970000000004
  7.7575789999999998  0.0336340000000000 10.7643070000000005
  7.7305609999999998  1.6000859999999999 12.7455610000000004
  9.7629459999999995 21.3964430000000014 12.8096789999999991
  9.7992190000000008  1.5516350000000001 11.1699160000000006
  7.7883009999999997 21.5742420000000017 14.4613829999999997
  7.6822020000000002  1.7248500000000000 16.3499930000000013
  9.8063810000000000  0.1256100000000000 16.2298639999999992
  9.7971509999999995  1.8796940000000000 14.2457919999999998
  7.8069680000000004 21.6748680000000000 18.0910629999999983
  7.7001460000000002  1.9304850000000000 19.9711120000000015
  9.6294880000000003 21.5190820000000009 20.0203920000000011
  9.6892569999999996  1.8163750000000001 18.2878679999999996
  7.6561450000000004  3.5934309999999998  0.1138940000000000
  7.5485129999999998  5.5966420000000001  1.7936970000000001
  9.5614050000000006  3.5601409999999998  1.8966440000000000
  9.6749449999999992  5.5675739999999996  0.2276080000000000
  7.5628409999999997  3.7508870000000001  3.6375980000000001
  7.5917649999999997  5.3419290000000004  5.5575150000000004
  9.6871039999999997  4.0659820000000000  5.4045610000000002
  9.6222560000000001  5.6955739999999997  3.4134440000000001
  7.7304599999999999  3.6855799999999999  7.2162350000000002
  7.5613020000000004  5.3811119999999999  9.1923399999999997
  9.5572009999999992  3.3141389999999999  9.2689699999999995
  9.6939890000000002  5.3590410000000004  7.7046869999999998
  7.6528029999999996  3.3764340000000002 10.9000920000000008
  7.6908849999999997  5.3625689999999997 12.6374879999999994
  9.5520849999999999  3.7231700000000001 12.3652300000000004
  9.7275060000000000  5.4973780000000003 10.6640499999999996
  7.7354870000000000  3.5324949999999999 14.5195880000000006
  7.7350830000000004  5.4220389999999998 16.2319420000000001
  9.5971309999999992  3.4383119999999998 16.3114339999999984
  9.6956589999999991  5.1793730000000000 14.4082629999999998
  7.7026969999999997  3.5799390000000000 18.0993999999999993
  7.5368389999999996  5.3907239999999996 19.8078490000000009
  9.5666499999999992  3.8671519999999999 20.0048920000000017
  9.6617529999999991  5.3735150000000003 17.8401519999999998
  7.7521459999999998  7.2446370000000000 21.4924190000000017
  7.5981290000000001  8.9833160000000003  1.8888590000000001
  9.6745800000000006  7.5730589999999998  1.7004070000000000
  9.7734839999999998  9.1073109999999993 21.4502999999999986
  7.5973129999999998  7.2899390000000004  3.5686879999999999
  7.6329580000000004  9.0803899999999995  5.4140519999999999
  9.5713229999999996  6.8192789999999999  5.6511560000000003
  9.6656580000000005  8.7739840000000004  3.9470679999999998
  7.5924709999999997  7.1881089999999999  7.3320470000000002
  7.5805020000000001  9.1503160000000001  9.0849759999999993
  9.6822640000000000  7.5602440000000000  8.9944290000000002
  9.7079470000000008  9.0843489999999996  7.0566449999999996
  7.6781300000000003  7.2988419999999996 10.8113899999999994
  7.7473720000000004  9.1206639999999997 12.7767199999999992
  9.6912800000000008  7.1876369999999996 12.7760809999999996
  9.5839649999999992  9.1955910000000003 11.0802929999999993
  7.7211770000000000  7.1939080000000004 14.4833259999999999
  7.7348330000000001  9.0730219999999999 16.2297229999999999
  9.6930829999999997  7.3059399999999997 16.1252910000000007
  9.7386949999999999  9.1597019999999993 14.4253760000000000
  7.6697990000000003  7.2105819999999996 17.9874820000000000
  7.8127490000000002  9.0132490000000001 19.7279109999999989
  9.6182470000000002  7.0577199999999998 19.8150300000000001
  9.7761840000000007  8.8934940000000005 17.9834880000000013
  7.8108940000000002 10.7891180000000002 21.6887299999999996
  7.6467729999999996 12.5440109999999994  1.7660760000000000
  9.7724030000000006 10.4351870000000009  1.9124369999999999
  9.7196259999999999 12.5442940000000007  0.2958420000000000
  7.7632260000000004 10.8346990000000005  3.5891250000000001
  7.6892120000000004 12.5567949999999993  5.3777489999999997
  9.8257139999999996 10.9056099999999994  5.2680600000000002
  9.6234719999999996 12.6259809999999995  3.4969420000000002
  7.7416349999999996 10.8516420000000000  7.2139129999999998
  7.7532050000000003 12.6244599999999991  9.0172749999999997
  9.8166469999999997 10.7951320000000006  9.0602719999999994
  9.7023630000000001 12.5876839999999994  7.2447460000000001
  7.6862320000000004 10.9311349999999994 10.9760790000000004
  7.7445459999999997 12.8170789999999997 12.7818149999999999
  9.7136270000000007 11.0656750000000006 12.9102639999999997
  9.6558519999999994 12.6018089999999994 10.9059329999999992
  7.8132270000000004 10.9379890000000000 14.4766580000000005
  7.5474639999999997 12.7745289999999994 16.2933750000000011
  9.6499570000000006 10.7981750000000005 16.3920810000000010
  9.5899269999999994 12.7848340000000000 14.8617159999999995
  7.6595190000000004 10.9081170000000007 18.0333530000000017
  7.6240730000000001 12.6309030000000000 19.8752980000000008
  9.6606699999999996 11.0654480000000000 19.7407930000000000
  9.5396690000000000 12.7330030000000001 17.9154990000000005
  7.6265999999999998 14.3727760000000000  0.0418910000000000
  7.6603190000000003 16.2024219999999985  1.7489650000000001
  9.6205929999999995 14.5633239999999997  1.7893280000000000
  9.5870440000000006 16.2831690000000009 21.5293269999999985
  7.6701420000000002 14.4364419999999996  3.6175750000000000
  7.7297650000000004 16.3392380000000017  5.3690840000000000
  9.6745699999999992 14.3727450000000001  5.3185320000000003
  9.8046260000000007 16.2877289999999988  3.7521360000000001
  7.8105729999999998 14.3927420000000001  7.1432229999999999
  7.7680530000000001 16.1932219999999987  9.0148259999999993
  9.9248940000000001 14.4010479999999994  9.1066599999999998
  9.6723269999999992 16.2168379999999992  7.1503100000000002
  7.7903969999999996 14.5136950000000002 10.8266419999999997
  7.8403119999999999 16.3818200000000012 12.6602669999999993
  9.6737710000000003 14.4182799999999993 12.6841200000000001
  9.9249620000000007 16.2891550000000009 10.9391780000000001
  7.8123199999999997 14.7022370000000002 14.6871869999999998
  7.6774870000000002 16.4465509999999995 16.5654110000000010
  9.7175150000000006 14.8413439999999994 16.5507959999999983
  9.9454300000000000 16.2565939999999998 14.3402890000000003
  7.7241540000000004 14.4559069999999998 18.2659599999999998
  7.5083650000000004 16.3517210000000013 20.1058190000000003
  9.7880179999999992 14.1406799999999997 20.1065110000000011
  9.4965119999999992 16.3615570000000012 18.5233740000000004
  7.5890930000000001 18.1624969999999983  0.0780940000000000
  7.6588039999999999 20.0386029999999984  2.0267160000000000
  9.5463710000000006 17.9211649999999985  1.7240860000000000
  9.6528840000000002 20.0551889999999986  0.5028629999999999
  7.7059550000000003 18.0105439999999994  3.6123259999999999
  7.7893640000000000 19.7747419999999998  5.4088599999999998
  9.7844999999999995 18.1305249999999987  5.5381790000000004
  9.8201549999999997 19.7793160000000015  3.5710670000000002
  7.8362819999999997 17.9726630000000007  7.3233119999999996
  7.8289109999999997 19.8044919999999998  8.9831360000000000
  9.7506290000000000 17.9416870000000017  8.9956689999999995
  9.6986950000000007 19.9344509999999993  7.2769029999999999
  7.9287089999999996 17.9793410000000016 10.7803319999999996
  7.7947930000000003 19.8543860000000016 12.6124930000000006
  9.6334420000000005 18.2057240000000000 12.6838599999999992
  9.6729079999999996 19.9874909999999986 10.6517610000000005
  7.7597399999999999 18.0706109999999995 14.5449529999999996
  7.6796980000000001 19.8373840000000001 16.2738760000000013
  9.9029439999999997 17.7767279999999985 16.4643030000000010
  9.7299080000000000 19.6798840000000013 14.7904199999999992
  7.7503590000000004 18.2468229999999991 18.3772190000000002
  7.6012019999999998 19.9940029999999993 20.2283989999999996
  9.5632710000000003 18.3984859999999983 20.1925549999999987
  9.7332450000000001 20.0159529999999997 17.9903089999999999
 19.4101010000000009  1.9623969999999999  0.3891820000000000
 47.7856540000000010  1.5877110000000001 21.3707759999999993
 27.0608550000000001  6.2072409999999998  9.9310530000000004
 12.8857090000000003  7.6469120000000004  3.2944559999999998
 18.8295649999999988 12.4488610000000008 13.8883890000000001
 49.7975380000000030 10.7958510000000008 10.5864370000000001
 50.4841710000000035 13.9548140000000007 18.0322029999999991
 36.8784599999999969 17.2926849999999988  3.8209080000000002
 32.0714589999999973  2.9034879999999998  5.5986989999999999
 15.6336709999999997  9.1552360000000004 11.7622789999999995
 50.3514970000000019 18.8142560000000003  1.2199260000000001
 21.7800660000000015 11.5183339999999994 15.5059170000000002
 49.7769490000000019 17.6459350000000015 19.2215109999999996
 26.8660770000000007  9.4581060000000008 11.3532449999999994
 24.2558669999999985  3.2165800000000000  5.1457230000000003
 39.4571169999999967  9.8882659999999998  7.0942689999999997
 21.3548250000000017 16.1972909999999999  3.7174969999999998
 12.7284469999999992  7.1749850000000004 11.7762279999999997
 37.4077759999999984  8.3970719999999996 21.1118449999999989
 30.8816619999999986 11.8551800000000007  0.0438250000000000
 30.0613889999999984  4.6252459999999997 17.1203220000000016
 32.8075720000000004 13.2265069999999998  2.4421330000000001
 20.1930869999999985 18.2905259999999998 11.7488119999999991
 28.8805540000000001  0.4941120000000000  2.7711700000000001
 26.6780240000000006 20.5428089999999983 20.4881400000000014
 46.0120980000000017  7.0078360000000002  6.4999029999999998
 25.8938680000000012  5.7919570000000000  3.0848749999999998
 50.4866979999999970  6.8044690000000001 18.4049049999999994
 40.9076480000000018  9.1912830000000003 15.7998379999999994
 16.7941339999999997  3.4234089999999999 14.4506490000000003
 157.6529519999999991  6.4065029999999998  8.3879950000000001
 42.0320869999999971  7.4448169999999996 13.0439690000000006
 36.8056580000000011  8.4723249999999997  3.9390410000000000
 51.9526570000000021 16.3019129999999990  2.6420919999999999
 15.7399989999999992 16.3708929999999988 19.8439019999999999
 33.6982339999999994  8.4344160000000006 10.0109440000000003
 30.5112160000000010 19.5201859999999989 16.1282679999999985
 18.8414679999999990  9.1976940000000003 15.3263289999999994
 37.8562939999999983 11.4680380000000000 20.1384550000000004
 32.1237520000000032 13.0979919999999996  8.9219030000000004
 38.6874210000000005  2.3714620000000002 15.3081960000000006
 52.3217849999999984  6.5691560000000004 14.7756580000000000
 38.6302420000000026  6.6563460000000001  5.8600000000000003
 51.4392959999999988  8.5702789999999993  3.9711259999999999
 43.6985290000000006 14.9565079999999995  0.7042840000000000
 15.6242429999999999  0.6396450000000000 16.1909190000000009
 12.9106679999999994  5.7061229999999998 15.6517940000000007
 46.7062510000000017 18.8482410000000016 13.0962910000000008
 15.9048110000000005  7.8868200000000002 16.2875300000000003
 157.7452450000000113 10.9636239999999994  9.4921439999999997
 28.2818830000000005 11.2753859999999992 17.3054869999999994
 12.7446210000000004  0.4855560000000000 18.6006660000000004
 33.8441100000000006 21.2815310000000011  5.7968460000000004
 22.8503259999999990 18.1100950000000012 13.5218819999999997
 21.7670309999999994 12.3216459999999994  6.8273710000000003