Cu  C 
 1.0000000000000000
   160.8448789999999917    0.0000000000000000    0.0000000000000000
     0.0000000000000000   21.6897599999999997    0.0000000000000000
     0.0000000000000000    0.0000000000000000   21.6897599999999997
 432 521
Cartesian
  0.0000000000000000  0.0000000000000000  0.0000000000000000
  0.0000000000000000  1.8074730000000001  1.8074730000000001
  1.9924729999999999 21.5391489999999983  1.8487199999999999
  1.9843710000000001  1.8999699999999999  0.1489630000000000
  0.0000000000000000  0.0000000000000000  3.6149670000000000
  0.0000000000000000  1.8074730000000001  5.4224399999999999
  2.0533649999999999 21.6350419999999986  5.3937150000000003
  2.0220389999999999  1.6312840000000000  3.5737890000000001
  0.0000000000000000  0.0000000000000000  7.2299129999999998
  0.0000000000000000  1.8074730000000001  9.0374070000000000
  2.0830460000000000 21.6644040000000011  8.9416049999999991
  2.0621779999999998  1.8397650000000001  7.2196780000000000
  0.0000000000000000  0.0000000000000000 10.8448799999999999
  0.0000000000000000  1.8074730000000001 12.6523529999999997
  2.0143219999999999 21.6766989999999993 12.6785280000000000
  1.9900929999999999  1.8089649999999999 10.8379539999999999
  0.0000000000000000  0.0000000000000000 14.4598469999999999
  0.0000000000000000  1.8074730000000001 16.2673200000000016
  1.9557570000000000  0.0181410000000000 16.1925479999999986
  2.1206010000000002  1.7962199999999999 14.3775510000000004
  0.0000000000000000  0.0000000000000000 18.0747929999999997
  0.0000000000000000  1.8074730000000001 19.8822870000000016
  2.0113370000000002 21.6723919999999985 19.9517130000000016
  2.0447549999999999  1.8201980000000000 18.1893330000000013
  0.0000000000000000  3.6149670000000000  0.0000000000000000
  0.0000000000000000  5.4224399999999999  1.8074730000000001
  2.0110280000000000  3.6808190000000001  1.9401400000000000
  1.9789950000000001  5.3221660000000002  0.0334040000000000
  0.0000000000000000  3.6149670000000000  3.6149670000000000
  0.0000000000000000  5.4224399999999999  5.4224399999999999
  2.0606010000000001  3.5463290000000001  5.2179370000000000
  1.9690289999999999  5.5368180000000002  3.5643729999999998
  0.0000000000000000  3.6149670000000000  7.2299129999999998
  0.0000000000000000  5.4224399999999999  9.0374070000000000
  2.0033609999999999  3.5518510000000001  8.9817330000000002
  1.9809619999999999  5.3188839999999997  7.1214690000000003
  0.0000000000000000  3.6149670000000000 10.8448799999999999
  0.0000000000000000  5.4224399999999999 12.6523529999999997
  1.9509770000000000  3.6474720000000000 12.6167770000000008
  2.0682800000000001  5.4008130000000003 10.7963330000000006
  0.0000000000000000  3.6149670000000000 14.4598469999999999
  0.0000000000000000  5.4224399999999999 16.2673200000000016
  2.1104319999999999  3.5979459999999999 16.2203240000000015
  1.9747650000000001  5.4739620000000002 14.4753390000000000
  0.0000000000000000  3.6149670000000000 18.0747929999999997
  0.0000000000000000  5.4224399999999999 19.8822870000000016
  1.9552030000000000  3.6099239999999999 19.9680439999999990
  2.0429230000000000  5.4380750000000004 17.9966769999999983
  0.0000000000000000  7.2299129999999998  0.0000000000000000
  0.0000000000000000  9.0374070000000000  1.8074730000000001
  1.9691890000000001  7.1858610000000001  1.6861990000000000
  2.0616230000000000  9.1001870000000000  0.0182530000000000
  0.0000000000000000  7.2299129999999998  3.6149670000000000
  0.0000000000000000  9.0374070000000000  5.4224399999999999
  1.9862700000000000  7.2074840000000000  5.4064329999999998
  2.0971500000000001  8.9208119999999997  3.4964469999999999
  0.0000000000000000  7.2299129999999998  7.2299129999999998
  0.0000000000000000  9.0374070000000000  9.0374070000000000
  1.9516199999999999  7.1226000000000003  9.0209899999999994
  1.9845710000000001  8.9630150000000004  7.2116049999999996
  0.0000000000000000  7.2299129999999998 10.8448799999999999
  0.0000000000000000  9.0374070000000000 12.6523529999999997
  2.0436200000000002  7.1237349999999999 12.7240970000000004
  1.9285540000000001  8.8620599999999996 10.7812819999999991
  0.0000000000000000  7.2299129999999998 14.4598469999999999
  0.0000000000000000  9.0374070000000000 16.2673200000000016
  2.0431979999999998  7.2685170000000001 16.2726529999999983
  2.0350109999999999  9.0022000000000002 14.3670720000000003
  0.0000000000000000  7.2299129999999998 18.0747929999999997
  0.0000000000000000  9.0374070000000000 19.8822870000000016
  2.1517759999999999  7.2708130000000004 19.8705050000000014
  2.1027629999999999  9.1256769999999996 18.0352679999999985
  0.0000000000000000 10.8448799999999999  0.0000000000000000
  0.0000000000000000 12.6523529999999997  1.8074730000000001
  2.0399400000000001 10.7758140000000004  1.8833519999999999
  2.0171440000000000 12.7187000000000001 21.6834060000000015
  0.0000000000000000 10.8448799999999999  3.6149670000000000
  0.0000000000000000 12.6523529999999997  5.4224399999999999
  1.9579020000000000 10.7105420000000002  5.3325500000000003
  2.0057119999999999 12.6668500000000002  3.5948030000000002
  0.0000000000000000 10.8448799999999999  7.2299129999999998
  0.0000000000000000 12.6523529999999997  9.0374070000000000
  1.9603750000000000 10.8102060000000009  8.9905030000000004
  1.9880800000000001 12.5554120000000005  7.2172689999999999
  0.0000000000000000 10.8448799999999999 10.8448799999999999
  0.0000000000000000 12.6523529999999997 12.6523529999999997
  1.9377880000000001 10.8709410000000002 12.6362959999999998
  2.0253690000000000 12.5831490000000006 10.8953109999999995
  0.0000000000000000 10.8448799999999999 14.4598469999999999
  0.0000000000000000 12.6523529999999997 16.2673200000000016
  2.0893320000000002 10.9209029999999991 16.2053739999999991
  2.0077650000000000 12.7941830000000003 14.4789790000000007
  0.0000000000000000 10.8448799999999999 18.0747929999999997
  0.0000000000000000 12.6523529999999997 19.8822870000000016
  2.0786560000000001 10.8916360000000001 19.8515009999999990
  2.0287760000000001 12.7304279999999999 18.0143929999999983
  0.0000000000000000 14.4598469999999999  0.0000000000000000
  0.0000000000000000 16.2673200000000016  1.8074730000000001
  1.9660040000000001 14.4864400000000000  1.7879719999999999
  1.9613410000000000 16.2027660000000004 21.6299230000000016
  0.0000000000000000 14.4598469999999999  3.6149670000000000
  0.0000000000000000 16.2673200000000016  5.4224399999999999
  1.9775490000000000 14.4676849999999995  5.5176780000000001
  2.0684239999999998 16.1629320000000014  3.7642899999999999
  0.0000000000000000 14.4598469999999999  7.2299129999999998
  0.0000000000000000 16.2673200000000016  9.0374070000000000
  2.0071370000000002 14.2983790000000006  9.0052230000000009
  2.0158649999999998 16.2410379999999996  7.3015900000000000
  0.0000000000000000 14.4598469999999999 10.8448799999999999
  0.0000000000000000 16.2673200000000016 12.6523529999999997
  2.0384519999999999 14.4641110000000008 12.5802200000000006
  2.0300660000000001 16.2538979999999995 10.7882569999999998
  0.0000000000000000 14.4598469999999999 14.4598469999999999
  0.0000000000000000 16.2673200000000016 16.2673200000000016
  2.0379480000000001 14.6646629999999991 16.2677179999999986
  1.9783839999999999 16.2860930000000010 14.3256379999999996
  0.0000000000000000 14.4598469999999999 18.0747929999999997
  0.0000000000000000 16.2673200000000016 19.8822870000000016
  1.9211140000000000 14.4067000000000007 19.8727480000000014
  1.9751479999999999 16.3860770000000002 18.0792549999999999
  0.0000000000000000 18.0747929999999997  0.0000000000000000
  0.0000000000000000 19.8822870000000016  1.8074730000000001
  1.8734560000000000 18.0361240000000009  1.7586290000000000
  2.0114670000000001 19.7320069999999994 21.6457160000000002
  0.0000000000000000 18.0747929999999997  3.6149670000000000
  0.0000000000000000 19.8822870000000016  5.4224399999999999
  1.8516170000000001 17.9991340000000015  5.5357000000000003
  1.9052890000000000 19.8057079999999992  3.6748069999999999
  0.0000000000000000 18.0747929999999997  7.2299129999999998
  0.0000000000000000 19.8822870000000016  9.0374070000000000
  2.0022009999999999 18.0976590000000002  9.0572579999999991
  2.1526149999999999 19.9515889999999985  7.1899009999999999
  0.0000000000000000 18.0747929999999997 10.8448799999999999
  0.0000000000000000 19.8822870000000016 12.6523529999999997
  1.9604320000000000 18.1545279999999991 12.6296280000000003
  1.9935080000000001 19.9317980000000006 10.8333919999999999
  0.0000000000000000 18.0747929999999997 14.4598469999999999
  0.0000000000000000 19.8822870000000016 16.2673200000000016
  1.9498169999999999 18.0785419999999988 16.1878689999999992
  2.0935990000000002 19.8739190000000008 14.3774470000000001
  0.0000000000000000 18.0747929999999997 18.0747929999999997
  0.0000000000000000 19.8822870000000016 19.8822870000000016
  1.9946590000000000 18.0852700000000013 19.8244590000000009
  2.0445259999999998 19.9944160000000011 18.0252100000000013
  3.8662000000000001 21.5213469999999987  0.0607020000000000
  3.9172630000000002  1.7102320000000000  1.9175350000000000
  5.8684279999999998 21.6056319999999999  1.7646940000000000
  5.8329190000000004  1.7581540000000000  0.1031340000000000
  3.9317310000000001 21.5848340000000007  3.5524909999999998
  3.9476070000000001  1.8029340000000000  5.2759159999999996
  5.7379119999999997  0.0907470000000000  5.3630810000000002
  5.8840190000000003  1.7356160000000000  3.5057140000000002
  4.0010269999999997  0.0725070000000000  7.1462040000000000
  3.9947159999999999  1.7569560000000000  8.9818990000000003
  5.8279300000000003  0.0387060000000000  9.0506860000000007
  5.7835060000000000  1.9191760000000000  7.2148659999999998
  3.8874590000000002  0.0290890000000000 10.7785539999999997
  3.9076590000000002  1.8048540000000000 12.6892110000000002
  5.8976259999999998  0.0689620000000000 12.6662169999999996
  5.7937880000000002  1.8458239999999999 10.9172799999999999
  4.0146420000000003  0.0117950000000000 14.5184650000000008
  3.9297019999999998  1.8531200000000001 16.2721640000000001
  5.8368679999999999  0.0135580000000000 16.2243110000000001
  5.8288520000000004  1.9734320000000001 14.4954990000000006
  3.9788579999999998  0.1128570000000000 18.0873029999999986
  3.9380449999999998  1.8207739999999999 19.9740819999999992
  5.8618699999999997 21.6088999999999984 19.9782110000000017
  5.7635909999999999  1.8252670000000000 18.0965990000000012
  3.9285589999999999  3.6090350000000000  0.0580060000000000
  3.8229959999999998  5.4056670000000002  1.8593340000000000
  5.9454130000000003  3.6279290000000000  1.8201030000000000
  5.9942960000000003  5.4289009999999998  0.0512680000000000
  3.9575890000000000  3.6144590000000001  3.6548639999999999
  3.8971719999999999  5.4667849999999998  5.2763859999999996
  5.9709139999999996  3.5097320000000001  5.3325570000000004
  5.8528490000000000  5.4949139999999996  3.6229110000000002
  3.9649139999999998  3.6771959999999999  7.1164180000000004
  3.8066610000000001  5.4332349999999998  8.9346409999999992
  5.8605749999999999  3.7144290000000000  9.0169090000000001
  5.9001370000000000  5.3877910000000000  7.0473509999999999
  3.9743529999999998  3.5761460000000000 10.7791549999999994
  3.9385990000000000  5.4212259999999999 12.5698629999999998
  5.8263550000000004  3.6240850000000000 12.7026629999999994
  5.7571070000000004  5.3612650000000004 10.8358489999999996
  3.8935640000000000  3.7137210000000000 14.4338739999999994
  3.9560650000000002  5.3620979999999996 16.3121790000000004
  5.7932009999999998  3.5968030000000000 16.3496459999999999
  5.8503140000000000  5.3491739999999997 14.4264259999999993
  3.9483640000000002  3.5196130000000001 18.2152199999999986
  3.9150200000000002  5.3892920000000002 20.0066050000000004
  5.8625800000000003  3.5091370000000000 19.9745220000000003
  5.7663200000000003  5.4121560000000004 18.0733420000000002
  4.0095280000000004  7.2075930000000001  0.0131920000000000
  3.8952860000000000  9.0762020000000003  1.7773330000000001
  5.8327010000000001  7.1745109999999999  1.7747820000000001
  5.7672970000000001  9.1816859999999991  0.0608660000000000
  3.8817070000000000  7.2192910000000001  3.4471919999999998
  3.8937560000000002  8.8731720000000003  5.2897179999999997
  5.7954749999999997  7.2568630000000001  5.4019120000000003
  5.8075720000000004  8.9396419999999992  3.6341969999999999
  3.7812770000000002  7.1753439999999999  7.1796139999999999
  3.8773610000000001  9.0073790000000002  8.9602730000000008
  5.7734750000000004  7.1374860000000000  9.0452870000000001
  5.7793060000000001  8.8616139999999994  7.1668950000000002
  3.7749290000000002  7.2617599999999998 10.7927850000000003
  3.8834350000000000  8.9364089999999994 12.7023519999999994
  5.9311299999999996  7.2551379999999996 12.6922630000000005
  5.8546740000000002  8.9667919999999999 10.8256090000000000
  4.0085940000000004  7.1512260000000003 14.5370589999999993
  3.9570010000000000  8.9343920000000008 16.3331359999999997
  5.8814310000000001  7.1428510000000003 16.2460939999999994
  5.7031799999999997  9.0523539999999993 14.5285480000000007
  3.9272260000000001  7.1653770000000003 18.1892099999999992
  3.9600439999999999  9.1835699999999996 19.9429839999999992
  5.8886510000000003  7.3365179999999999 19.9646580000000000
  5.8269099999999998  9.0944900000000004 18.0027839999999983
  3.8361280000000000 10.9878900000000002 21.6535890000000002
  3.8282479999999999 12.6885709999999996  1.8833949999999999
  5.7775610000000004 10.8635380000000001  1.8105000000000000
  5.7801739999999997 12.7275609999999997  0.1270010000000000
  3.9452989999999999 10.8422059999999991  3.5891890000000002
  3.7852760000000001 12.5289400000000004  5.4007199999999997
  5.7069999999999999 10.8253939999999993  5.4136379999999997
  5.7416809999999998 12.7757989999999992  3.6680720000000000
  3.8559399999999999 10.6581480000000006  7.0951399999999998
  3.9064920000000001 12.5286150000000003  8.9888030000000008
  5.6889649999999996 10.7343519999999994  8.9792339999999999
  5.6483650000000001 12.6057989999999993  7.2400270000000004
  3.7724139999999999 10.7933229999999991 10.7407129999999995
  3.8880949999999999 12.6010150000000003 12.6528880000000008
  5.7043580000000000 10.7888339999999996 12.5202279999999995
  5.8390839999999997 12.6850600000000000 10.7067949999999996
  3.8542010000000002 10.8188160000000000 14.4129790000000000
  3.8404720000000001 12.7447680000000005 16.1249579999999995
  5.7985780000000000 11.1112359999999999 16.2928719999999991
  5.6454829999999996 12.7425920000000001 14.3434080000000002
  3.9277869999999999 10.9481640000000002 18.0489120000000014
  3.9309129999999999 12.7801410000000004 20.0184080000000009
  5.7631660000000000 11.0168339999999993 19.8646449999999994
  5.6871340000000004 12.8175089999999994 18.0649830000000016
  3.8312179999999998 14.4967109999999995  0.1464300000000000
  3.7580920000000000 16.3231520000000003  1.8754949999999999
  5.7374419999999997 14.6254489999999997  1.8030050000000000
  5.8045330000000002 16.3481650000000016 21.6640259999999998
  3.9151030000000002 14.4574560000000005  3.7416290000000001
  3.9399350000000002 16.3626119999999986  5.5113539999999999
  5.6830489999999996 14.4750650000000007  5.5561840000000000
  5.7698999999999998 16.3227200000000003  3.6863630000000001
  3.8769390000000001 14.4990989999999993  7.2227090000000000
  3.8510870000000001 16.3230390000000014  9.0497969999999999
  5.7420479999999996 14.5080650000000002  9.0446609999999996
  5.8229930000000003 16.4259769999999996  7.2847879999999998
  3.9129459999999998 14.5378150000000002 10.6760409999999997
  3.9070399999999998 16.3480890000000016 12.5468430000000009
  5.6796499999999996 14.4723780000000009 12.5308010000000003
  5.9259630000000003 16.3327519999999993 10.9171849999999999
  3.9150090000000000 14.6374790000000008 14.3253319999999995
  3.9423520000000001 16.4251949999999987 16.1665090000000014
  5.6827579999999998 14.5280719999999999 16.2138400000000011
  5.8408259999999999 16.3249299999999984 14.3630689999999994
  3.8466890000000000 14.5884800000000006 18.1038330000000016
  3.8069030000000001 16.2100760000000008 20.0391629999999985
  5.8268459999999997 14.4861219999999999 19.9616679999999995
  5.7371150000000002 16.2879760000000005 18.0438289999999988
  3.8742179999999999 17.9403940000000013  0.1208340000000000
  3.8612050000000000 19.7555680000000002  1.8920999999999999
  5.8131670000000000 18.0113330000000005  1.9098100000000000
  5.9148949999999996 19.7554340000000010  0.0355830000000000
  3.8662529999999999 18.0881569999999989  3.6093060000000001
  3.8912710000000001 19.9063720000000011  5.4008250000000002
  5.8374860000000002 18.2524850000000001  5.4817989999999996
  5.8726190000000003 19.9872779999999999  3.6381800000000002
  3.8552510000000000 18.0700509999999994  7.2804539999999998
  3.9408699999999999 19.9728560000000002  8.9449129999999997
  5.7102149999999998 18.2735360000000000  8.9868489999999994
  5.8974060000000001 19.9660599999999988  7.2981759999999998
  3.9488910000000002 18.2743579999999994 10.7080690000000001
  3.9648599999999998 20.0652410000000003 12.6222680000000000
  5.8101849999999997 18.1355709999999988 12.6444759999999992
  5.7793960000000002 19.9759250000000002 10.8506450000000001
  3.9714390000000002 18.1204810000000016 14.3619199999999996
  3.8686360000000000 19.9201580000000007 16.2407800000000009
  5.8252899999999999 18.1640890000000006 16.2358040000000017
  5.8953990000000003 19.9175600000000017 14.4170219999999993
  3.9444349999999999 18.0531569999999988 18.0303520000000006
  3.8864220000000000 19.8376079999999995 19.9553420000000017
  5.7281880000000003 18.1038770000000007 19.9790889999999983
  5.6496950000000004 19.8539320000000004 18.0955179999999984
  7.6992219999999998 21.5553360000000005 21.6853000000000016
  7.7547769999999998  1.7285010000000001  1.6714340000000001
  9.8903700000000008 21.6273260000000001  1.9990990000000000
  9.7498850000000008  1.4842020000000000 21.5773429999999991
  7.7904470000000003 21.6181500000000000  3.4822739999999999
  7.7725759999999999  1.7382880000000001  5.2638360000000004
  9.7117819999999995 21.6697680000000013  5.2293789999999998
  9.8546910000000008  1.8279250000000000  3.7413059999999998
  7.7220560000000003  0.1245060000000000  7.1940530000000003
  7.5536120000000002  1.8705449999999999  9.0902499999999993
  9.6214560000000002  0.2542540000000000  9.0433710000000005
  9.8210289999999993  1.9287770000000000  7.2247399999999997
  7.6233890000000004  0.0477880000000000 10.9002140000000001
  7.8205010000000001  1.8308670000000000 12.7878450000000008
  9.7817139999999991 21.4435070000000003 12.7483009999999997
  9.8231870000000008  1.6424890000000001 11.0329490000000003
  7.7381929999999999 21.6430119999999988 14.4391359999999995
  7.7260770000000001  1.6818249999999999 16.3200590000000005
  9.8557340000000000  0.2081880000000000 16.0211320000000015
  9.7722029999999993  1.9624490000000001 14.3074750000000002
  7.6609629999999997 21.5789319999999982 18.0655819999999991
  7.6234339999999996  1.6452840000000000 19.9785719999999998
  9.7658959999999997 21.2435739999999988 20.0046110000000006
  9.5379930000000002  1.4746170000000001 18.3411079999999984
  7.8087150000000003  3.6073569999999999 21.6509479999999996
  7.9009190000000000  5.4421850000000003  1.6225170000000000
  9.7768230000000003  3.4548359999999998  1.7188770000000000
  9.9523949999999992  5.4361340000000000 21.5742229999999999
  7.8151020000000004  3.6504020000000001  3.5867230000000001
  7.9087269999999998  5.4673449999999999  5.4249150000000004
  9.8539399999999997  3.8245300000000002  5.3578260000000002
  9.9488470000000007  5.5748860000000002  3.5294970000000001
  7.8441720000000004  3.5983200000000002  7.2121579999999996
  7.7266740000000000  5.3608120000000001  8.9676880000000008
  9.5597790000000007  3.4411809999999998  9.1628270000000001
  9.8614809999999995  5.3954649999999997  7.5376760000000003
  7.7449149999999998  3.5228709999999999 10.8885079999999999
  7.8063229999999999  5.4629089999999998 12.5546039999999994
  9.7885290000000005  3.7255989999999999 12.6107730000000000
  9.8459280000000007  5.5300019999999996 10.6976540000000000
  7.6709690000000004  3.5909979999999999 14.5678249999999991
  7.8221860000000003  5.3214180000000004 16.4072759999999995
  9.7296479999999992  3.3172959999999998 16.5726310000000012
  9.7206010000000003  5.1679870000000001 14.8366129999999998
  7.6026420000000003  3.5091030000000001 18.2200610000000012
  7.7283410000000003  5.3499759999999998 19.7912660000000002
  9.6147570000000009  3.5856550000000000 19.9211479999999987
  9.7296849999999999  5.4955390000000000 18.0528009999999988
  7.7587020000000004  7.3137239999999997 21.6543920000000014
  7.6706070000000004  9.0506729999999997  1.9030620000000000
  9.7175290000000007  7.4415319999999996  1.6489670000000001
  9.6243700000000008  9.2360360000000004 21.4991659999999989
  7.8446470000000001  7.1865319999999997  3.5050550000000000
  7.7841420000000001  8.9256919999999997  5.2796190000000003
  9.8621160000000003  7.2492489999999998  5.6759480000000000
  9.8740170000000003  8.8156409999999994  3.7103700000000002
  7.6512890000000002  7.2393229999999997  7.2938879999999999
  7.6234000000000002  9.0064750000000000  9.0205050000000000
  9.6413580000000003  7.4505400000000002  9.0504010000000008
  9.7599950000000000  9.2388060000000003  7.1093620000000000
  7.7683030000000004  7.2089889999999999 10.7622359999999997
  7.7040709999999999  9.0496949999999998 12.7944130000000005
  9.7791490000000003  7.0974300000000001 13.1163880000000006
  9.7019029999999997  8.9004449999999995 11.1297560000000004
  7.6951020000000003  7.1715840000000002 14.5049860000000006
  7.6227770000000001  9.1352550000000008 16.1196739999999998
  9.5296050000000001  7.3197900000000002 16.2987779999999987
  9.6816390000000006  9.2084130000000002 14.4783779999999993
  7.6409050000000001  7.2134410000000004 18.0072019999999995
  7.6178710000000001  9.0824710000000000 19.7255980000000015
  9.6767409999999998  7.3636179999999998 19.9463539999999995
  9.5055929999999993  9.0914669999999997 18.1459420000000016
  7.6520320000000002 10.8910730000000004 21.6659089999999992
  7.6720899999999999 12.6241269999999997  1.8452740000000001
  9.6879039999999996 10.7166759999999996  1.9563390000000001
  9.7045530000000007 12.5648260000000001  0.1416600000000000
  7.6168880000000003 10.8390740000000001  3.6858620000000002
  7.6096110000000001 12.6725069999999995  5.4695850000000004
  9.5559790000000007 10.8674280000000003  5.2397390000000001
  9.6964140000000008 12.9058430000000008  3.4431490000000000
  7.5563120000000001 10.6718969999999995  7.1559960000000000
  7.6121330000000000 12.5845129999999994  8.9473190000000002
  9.6444930000000006 10.7272660000000002  9.1304750000000006
  9.6073730000000008 12.4118150000000007  7.2185280000000001
  7.6804709999999998 10.7957000000000001 10.7986369999999994
  7.5142470000000001 12.6364040000000006 12.5837509999999995
  9.5046979999999994 11.0725169999999995 12.6305119999999995
  9.7047840000000001 12.5991830000000000 10.7415850000000006
  7.5153759999999998 11.0003949999999993 14.4881449999999994
  7.6485669999999999 12.7590710000000005 16.2617739999999991
  9.5648060000000008 10.7491199999999996 16.4539900000000010
  9.5411579999999994 12.6041980000000002 14.6118100000000002
  7.6299419999999998 10.8644359999999995 18.0271660000000011
  7.6685939999999997 12.5705810000000007 19.7700609999999983
  9.9255730000000000 10.9446639999999995 19.6916849999999997
  9.7385059999999992 12.8534609999999994 18.0184139999999999
  7.7038330000000004 14.4657680000000006  0.1366170000000000
  7.6866159999999999 16.2355389999999993  1.8896999999999999
  9.7194389999999995 14.6402230000000007  1.7141230000000001
  9.8386779999999998 16.4769590000000008 21.5927079999999982
  7.6524460000000003 14.4735259999999997  3.6982520000000001
  7.7360769999999999 16.2569750000000006  5.5899539999999996
  9.6832809999999991 14.2753549999999994  5.5776320000000004
  9.4977370000000008 16.1222239999999992  3.8277500000000000
  7.5666560000000000 14.3534509999999997  7.2957850000000004
  7.7898660000000000 16.3547159999999998  9.0659969999999994
  9.6144580000000008 14.2671329999999994  8.9844500000000007
  9.7553990000000006 16.0829929999999983  7.3139419999999999
  7.7013010000000000 14.4669740000000004 10.6975899999999999
  7.7684790000000001 16.3565250000000013 12.4942980000000006
  9.6390019999999996 14.3504729999999991 12.5755660000000002
  9.7729909999999993 16.1362500000000004 10.7212160000000001
  7.6413169999999999 14.4166240000000005 14.4203980000000005
  7.6484550000000002 16.1547809999999998 16.1892730000000000
  9.7483140000000006 14.6966120000000000 15.9458179999999992
  9.8532609999999998 16.4486199999999982 14.1173660000000005
  7.6729529999999997 14.4267230000000009 18.1087680000000013
  7.6823540000000001 16.3320070000000008 19.9475179999999988
  9.6626209999999997 14.3131160000000008 19.9806039999999996
  9.7251779999999997 16.1083339999999993 18.2070739999999986
  7.7589079999999999 18.0367640000000016  0.0418320000000000
  7.7786540000000004 19.8228909999999985  1.8870119999999999
  9.7064749999999993 17.6903219999999983  2.0669909999999998
  9.7964020000000005 19.7485579999999992  0.3329030000000000
  7.7135449999999999 18.0658700000000003  3.7879260000000001
  7.7894370000000004 19.8997039999999998  5.4769899999999998
  9.7805029999999995 18.0127740000000003  5.5465920000000004
  9.7564930000000007 19.7440660000000001  3.6616569999999999
  7.6940960000000000 18.1296870000000006  7.3173800000000000
  7.8493700000000004 19.9650479999999995  8.9303010000000000
  9.7949319999999993 18.1335569999999997  8.9382339999999996
  9.7383799999999994 20.0296580000000013  7.2949260000000002
  7.7233440000000000 18.1569220000000016 10.7309389999999993
  7.6827050000000003 19.9091790000000017 12.5628750000000000
  9.7974440000000005 18.2508879999999998 12.4857519999999997
  9.6425230000000006 20.0136310000000002 10.7202230000000007
  7.7155750000000003 18.0530760000000008 14.4115090000000006
  7.7701130000000003 19.8941969999999984 16.3347809999999996
  9.7635009999999998 17.8552789999999995 16.2878459999999983
  9.5464529999999996 19.7913640000000015 14.7345550000000003
  7.7244029999999997 17.9649530000000013 18.0816799999999986
  7.5813210000000000 19.7688650000000017 19.7886130000000016
  9.6749379999999991 18.2839479999999988 19.8239139999999985
  9.7921370000000003 19.9817360000000015 17.7951020000000000
 63.9168560000000028 15.2847880000000007 19.6574500000000008
 23.1217390000000016  7.8600000000000003  7.2434849999999997
 27.4899559999999994 19.4945109999999993 19.0688679999999984
 12.9522460000000006 16.1119580000000013  8.9164089999999998
 26.1506289999999986  5.3661560000000001  7.7468040000000000
 19.9186610000000002 11.0016510000000007 21.0098489999999991
 15.2850859999999997  6.5795909999999997 14.6336209999999998
 42.7013740000000013  3.9565649999999999 16.0875969999999988
 57.8251509999999982  0.1113500000000000 18.3966299999999983
 33.7871430000000004  8.4205889999999997  6.9652019999999997
 38.4089060000000018 12.9536230000000003 12.4576740000000008
 47.0486020000000025  6.4245630000000000 19.4521820000000005
 16.0381120000000017  4.0702350000000003 12.0945889999999991
 49.1781450000000007  6.7015529999999996 10.0059269999999998
 47.3734060000000028 18.0688309999999994 18.7209119999999984
 56.1755649999999989  7.5453979999999996  3.5176630000000002
 20.0629090000000012  9.8436129999999995  2.3887040000000002
 13.1817840000000004  3.1174320000000000 18.4854489999999991
 32.1389009999999971 12.8043999999999993  8.9582850000000001
 43.3495009999999965  1.1594439999999999  3.8286280000000001
 16.8768449999999994  8.8678190000000008  3.9927009999999998
 34.8630959999999988  4.5733889999999997  2.9652669999999999
 43.9851340000000022  6.7271840000000003  8.1064430000000005
 49.3914419999999978 14.0985980000000009  0.8583640000000000
 30.9040050000000015  7.5599059999999998 11.9532939999999996
 29.8553740000000012  0.3743480000000000  5.5526249999999999
 30.0145240000000015 21.5552360000000007 14.2945159999999998
 16.5388440000000010 14.1959060000000008 11.4781270000000006
 46.6833960000000019  4.8279750000000003 15.3073370000000004
 19.0678629999999991 17.9656750000000009 13.6405049999999992
 55.0714770000000016 18.6814980000000013 11.5265319999999996
 38.4643209999999982 20.9503929999999983  8.9359749999999991
 20.1305179999999986 14.0861129999999992 11.1323240000000006
 36.3700710000000029  7.3741490000000001  9.8095970000000001
 46.9853939999999994 19.6309790000000000  9.0738859999999999
 22.0850830000000009  7.5002540000000000  2.2913510000000001
 43.2005290000000031 16.5110349999999997  1.4949760000000001
 33.5316059999999965 13.7892869999999998 19.4240439999999985
 21.3443790000000000 17.9691960000000002  6.9425790000000003
 36.7947810000000004  1.3329020000000000  2.7803710000000001
 16.2727560000000011 20.2483789999999999  5.7429090000000000
 30.2722030000000011 18.9010120000000015 21.4036439999999999
 38.5899209999999968  8.4825759999999999 13.0494100000000000
 49.6314890000000020 19.0535539999999983  0.0687720000000000
 16.1332340000000016 19.3200830000000003  1.9024890000000001
 29.0777290000000015 18.2980149999999995  6.0907439999999999
 12.8783169999999991 15.8474860000000000 19.9229030000000016
 49.9756649999999993 14.0442450000000001 10.9675189999999994
 19.0579800000000006 18.4705900000000014  3.8390650000000002
 55.6853959999999972 10.0903279999999995 16.4154729999999986
 38.0043730000000011  6.8314050000000002  3.6293020000000000
 13.5642639999999997 15.9748819999999991  1.6111430000000000
 41.0297679999999971 10.8443369999999994 13.5523640000000007
 48.8574729999999988  1.7834010000000000  5.4863809999999997
 48.9902129999999971 10.9240069999999996 21.3667400000000001